! https://gamess.gitbooks.io/gamess-input-description/content
 $CONTRL EXETYP=RUN $END
 $SYSTEM MWORDS=1 $END
 $SYSTEM MEMDDI=1 $END
 $CONTRL SCFTYP=RHF MULT=1 ICHARG=0 ISPHER=1 $END
 $CONTRL RUNTYP=ENERGY $END
 $CONTRL MPLEVL=2 $END
 $CONTRL MAXIT=100 $END
 $CONTRL QMTTOL=1.0E-6 $END
 $SCF DIRSCF=.T. $END
 $BASIS GBASIS=CCT $END
 $STATPT NSTEP=1000 OPTTOL=0.0001 $END
 $MP2 CODE=DDI $END
 $SYSTEM PARALL=.T. $END
 $DATA
 small : clusters-HF-dimer : CCT
 C1
 H           1.0   0.0000000000   0.7954653261   1.7711358742
 F           9.0  -0.0000000000  -0.0088948766   1.3660761947
 H           1.0   0.0000000000  -0.1334188119  -0.5518494953
 F           9.0  -0.0000000000  -0.0070768976  -1.4447992836
 $END
 $GUESS GUESS=MOREAD $END
--- CLOSED SHELL ORBITALS --- GENERATED AT Thu Sep  6 00:10:47 2018
 small : clusters-HF-dimer : CCT
E(RHF)=     -200.1238159242, E(NUC)=   29.9447219482,    9 ITERS
 $VEC
 1  1 6.69904260E-04 4.52168954E-04-4.32112360E-04-0.00000000E+00-5.44365871E-04
 1  2-2.98608950E-04-0.00000000E+00-2.33008268E-04-1.60873217E-05-4.34249712E-05
 1  3 7.25389997E-05-2.91140285E-05-0.00000000E+00-0.00000000E+00 6.10281856E-05
 1  4 9.75579747E-01-7.57404332E-04 4.37331552E-02 2.60196603E-03-0.00000000E+00
 1  5 1.16256926E-03 4.73897526E-04-0.00000000E+00-1.04989896E-03-4.08410659E-04
 1  6-0.00000000E+00 1.81866940E-04-1.74202599E-04 9.55462171E-06 6.80739777E-06
 1  7-1.63620195E-05-0.00000000E+00-0.00000000E+00 5.86784060E-06 2.26490467E-04
 1  8-3.56323061E-04 1.29832595E-04-0.00000000E+00-0.00000000E+00-3.69503116E-04
 1  9-0.00000000E+00-5.83403660E-05 5.54733540E-05 8.37461771E-05 4.84922747E-05
 1 10-0.00000000E+00-1.22917589E-04-0.00000000E+00-5.47436258E-06-0.00000000E+00
 1 11-2.57540020E-06-1.01344393E-04-1.37437225E-04-0.00000000E+00 1.06523281E-05
 1 12 8.20597090E-05-0.00000000E+00-5.29258711E-05-2.26568567E-04 2.29295453E-05
 1 13 2.03686705E-05-4.32982157E-05-0.00000000E+00-0.00000000E+00-1.04935236E-05
 1 14-8.57979886E-05-1.13386575E-04 2.21745988E-05 1.18330734E-04-0.00000000E+00
 1 15 8.58006536E-07-7.09638109E-07-0.00000000E+00-8.54507971E-06 1.08146098E-05
 1 16-0.00000000E+00 3.25796404E-05 4.91815537E-05 1.15467198E-06 2.15519980E-06
 1 17-3.30987179E-06-0.00000000E+00-0.00000000E+00-6.03865345E-06-2.59769187E-05
 1 18-2.59021327E-05 5.18790514E-05-0.00000000E+00-0.00000000E+00 2.15131297E-06
 1 19-0.00000000E+00 6.37663459E-06 1.82016368E-05 3.16518594E-06-1.41932156E-05
 1 20-0.00000000E+00-1.02268427E-05-0.00000000E+00-1.17203390E-05-0.00000000E+00
 2  1 5.16853487E-06 3.60337998E-04 1.89235831E-04-0.00000000E+00 7.56734939E-06
 2  2-6.36029670E-06-0.00000000E+00-2.21989113E-04-5.34173879E-05-1.38059726E-05
 2  3 2.19922475E-05-8.18627483E-06-0.00000000E+00-0.00000000E+00 1.79406989E-05
 2  4-9.10272229E-05-1.86140857E-04 4.72205920E-05-1.06594993E-04-0.00000000E+00
 2  5-1.74900462E-06-1.67986801E-05-0.00000000E+00-2.15397071E-05 7.13593704E-05
 2  6-0.00000000E+00-2.47866735E-04-4.21525607E-04 5.36404334E-06 1.25962801E-05
 2  7-1.79603234E-05-0.00000000E+00-0.00000000E+00 5.34686278E-06-4.83422458E-06
 2  8-5.42297262E-05 5.90639508E-05-0.00000000E+00-0.00000000E+00-3.57284731E-05
 2  9-0.00000000E+00 2.41789074E-06-5.58571474E-06 1.06075468E-06 5.24156894E-06
 2 10-0.00000000E+00 2.25245378E-06-0.00000000E+00-4.30469552E-06-0.00000000E+00
 2 11 6.28365483E-04 9.89582754E-04-7.94470961E-04-0.00000000E+00 9.67194530E-05
 2 12-5.78038721E-04-0.00000000E+00 4.93382169E-05-7.35624476E-04-8.75967006E-05
 2 13-8.38010454E-05 1.71397746E-04-0.00000000E+00-0.00000000E+00-4.48517143E-05
 2 14 9.75482155E-01-9.20863061E-04 4.37663239E-02 2.21158429E-03-0.00000000E+00
 2 15-1.80421280E-04 1.28077301E-03-0.00000000E+00 1.93665570E-04-1.33489098E-03
 2 16-0.00000000E+00 8.01428009E-06 5.68957784E-05-3.18478895E-07 2.60080983E-07
 2 17 5.83979124E-08-0.00000000E+00-0.00000000E+00-3.13877739E-06 2.63665498E-04
 2 18 2.45003629E-04-5.08669127E-04-0.00000000E+00-0.00000000E+00 1.38476422E-04
 2 19-0.00000000E+00-2.59160804E-05-1.21456711E-04-1.19342420E-05 8.54272559E-05
 2 20-0.00000000E+00 7.75240211E-05-0.00000000E+00 4.67043124E-05-0.00000000E+00
 3  1 8.96358917E-02 5.68022260E-02 3.90863598E-03 0.00000000E+00-1.42401588E-02
 3  2-7.40859214E-03 0.00000000E+00-1.02153317E-02-4.83992889E-03-1.59699768E-03
 3  3 2.16451714E-03-5.67519463E-04 0.00000000E+00 0.00000000E+00 2.35684942E-03
 3  4-3.99576201E-03 5.46227167E-01 1.55968050E-01 3.28493557E-01 0.00000000E+00
 3  5 3.24182041E-02 1.45272288E-02 0.00000000E+00 4.53874787E-02 1.91653939E-02
 3  6 0.00000000E+00 1.04424481E-02 1.85560810E-03-1.42747003E-03 2.08874091E-03
 3  7-6.61270879E-04 0.00000000E+00 0.00000000E+00 2.02112980E-03-4.28934962E-03
 3  8 4.50458135E-03-2.15231729E-04 0.00000000E+00 0.00000000E+00 5.12437749E-03
 3  9 0.00000000E+00 7.32261940E-04-8.71998352E-04-9.96276454E-04-4.14848477E-04
 3 10 0.00000000E+00 1.58475703E-03 0.00000000E+00 1.38439687E-05 0.00000000E+00
 3 11 7.11875307E-03 6.22107875E-03 2.39434277E-03 0.00000000E+00 2.00252367E-04
 3 12-8.77303829E-04 0.00000000E+00 3.51331717E-05 8.91853641E-04-2.46605350E-04
 3 13-2.57764640E-04 5.04369990E-04 0.00000000E+00 0.00000000E+00-7.56094029E-06
 3 14-1.74918696E-04 2.80313813E-02 7.93492270E-03 1.52960027E-02 0.00000000E+00
 3 15-2.91598423E-04 3.01506168E-03 0.00000000E+00-3.54000180E-04 3.71401128E-03
 3 16 0.00000000E+00 4.97856727E-05 1.18847866E-03-1.02042121E-04-9.57805562E-05
 3 17 1.97822677E-04 0.00000000E+00 0.00000000E+00-5.34148994E-05-2.14151426E-04
 3 18-2.16096545E-04 4.30247971E-04 0.00000000E+00 0.00000000E+00 1.60179685E-05
 3 19 0.00000000E+00-4.93069849E-06 6.01418488E-05-2.58522765E-06-3.82377450E-05
 3 20 0.00000000E+00-4.24510123E-05 0.00000000E+00 9.20045386E-06 0.00000000E+00
 4  1-5.84675535E-03-4.90910898E-03-7.13080164E-04 0.00000000E+00 9.34188666E-04
 4  2 3.87516149E-04 0.00000000E+00 1.20752561E-03 5.62321275E-04 1.34019889E-04
 4  3-2.33037034E-04 9.90171457E-05 0.00000000E+00 0.00000000E+00-1.32372244E-04
 4  4 1.81588332E-04-3.20711962E-02-9.24767121E-03-1.85556113E-02 0.00000000E+00
 4  5-2.19733065E-03-2.89299011E-03 0.00000000E+00-2.98028715E-03-3.84605937E-03
 4  6 0.00000000E+00-2.90221265E-05-1.07852975E-03 1.00682388E-04-1.48396218E-04
 4  7 4.77138300E-05 0.00000000E+00 0.00000000E+00-1.61208346E-04-1.90766860E-06
 4  8-4.60195392E-04 4.62103060E-04 0.00000000E+00 0.00000000E+00-2.65997775E-04
 4  9 0.00000000E+00-4.59332756E-05-6.93762295E-06 6.74781465E-05 7.22835910E-05
 4 10 0.00000000E+00-6.29757931E-05 0.00000000E+00-5.85219047E-06 0.00000000E+00
 4 11 8.94701408E-02 5.92305725E-02 6.54330237E-03 0.00000000E+00 2.21263957E-03
 4 12-1.58878183E-02 0.00000000E+00 2.00707231E-03-1.36440051E-02-1.73481548E-03
 4 13-1.58055370E-03 3.31536918E-03 0.00000000E+00 0.00000000E+00-8.36723461E-04
 4 14-4.46267873E-03 5.44987144E-01 1.55807253E-01 3.26412517E-01 0.00000000E+00
 4 15-4.90557233E-03 3.59368005E-02 0.00000000E+00-6.79859127E-03 4.98999657E-02
 4 16 0.00000000E+00-9.55262133E-04 9.25879298E-03-1.48403301E-03-1.40188027E-03
 4 17 2.88591328E-03 0.00000000E+00 0.00000000E+00-7.12060196E-04-3.44877476E-03
 4 18-3.19639539E-03 6.64517015E-03 0.00000000E+00 0.00000000E+00-1.61937120E-03
 4 19 0.00000000E+00 3.35802748E-04 1.54383757E-03 1.54633459E-04-1.09157345E-03
 4 20 0.00000000E+00-9.79702004E-04 0.00000000E+00-6.05160123E-04 0.00000000E+00
 5  1 1.60057308E-01 2.14206576E-01 1.92692834E-02-0.00000000E+00-1.50956052E-02
 5  2-6.54903145E-03-0.00000000E+00-2.29161490E-02-1.07015686E-02-1.83481672E-03
 5  3 3.01666717E-03-1.18185045E-03-0.00000000E+00-0.00000000E+00 1.96512022E-03
 5  4 8.14297242E-04-1.24713216E-01-4.13995399E-02-2.09081903E-01-0.00000000E+00
 5  5 2.73651682E-01 1.60826776E-01-0.00000000E+00 3.33811507E-01 1.98260896E-01
 5  6-0.00000000E+00 1.90629374E-01 1.16193385E-01-3.88524652E-03 5.35747950E-03
 5  7-1.47223298E-03-0.00000000E+00-0.00000000E+00 5.54254401E-03-8.77275209E-03
 5  8 1.50237727E-02-6.25102062E-03-0.00000000E+00-0.00000000E+00 1.22197955E-02
 5  9-0.00000000E+00 1.55869095E-03-1.50833403E-03-2.40541456E-03-1.36594506E-03
 5 10-0.00000000E+00 3.38958751E-03-0.00000000E+00 3.14211209E-04-0.00000000E+00
 5 11-3.55006095E-02-5.20173634E-02-1.68633122E-02-0.00000000E+00-4.69319983E-04
 5 12 3.40966746E-03-0.00000000E+00 6.81543720E-04 4.25505796E-04 1.03362002E-03
 5 13 1.11718873E-03-2.15080874E-03-0.00000000E+00-0.00000000E+00 1.07613071E-04
 5 14-8.28208025E-04 3.44734126E-02 1.14701778E-02 5.73247876E-02-0.00000000E+00
 5 15 9.22104276E-03-5.97706758E-02-0.00000000E+00 1.06371488E-02-7.10268242E-02
 5 16-0.00000000E+00 6.31069866E-03-4.00860991E-02 7.78020032E-04 7.19815519E-04
 5 17-1.49783555E-03-0.00000000E+00-0.00000000E+00 4.08702908E-04 1.63362910E-03
 5 18 1.64696955E-03-3.28059865E-03-0.00000000E+00-0.00000000E+00 5.42873781E-04
 5 19-0.00000000E+00-5.54631611E-05-4.69217658E-04-2.47666954E-05 3.15176263E-04
 5 20-0.00000000E+00 3.14345285E-04-0.00000000E+00 9.91783345E-05-0.00000000E+00
 6  1 3.54908509E-02 5.43097550E-02 1.25920467E-02-0.00000000E+00-1.19935754E-03
 6  2-4.62816521E-03-0.00000000E+00-4.62858751E-03-1.11454652E-02-6.00476788E-04
 6  3-6.31574281E-04 1.23205107E-03-0.00000000E+00-0.00000000E+00 1.78688358E-03
 6  4-1.40752389E-03-4.74456845E-02-1.47774680E-02-6.28424972E-02-0.00000000E+00
 6  5 1.17933732E-01-7.18574512E-02-0.00000000E+00 1.43696321E-01-8.73873150E-02
 6  6-0.00000000E+00 9.01769977E-02-7.85926889E-02-9.66333029E-04 1.92271583E-03
 6  7-9.56382797E-04-0.00000000E+00-0.00000000E+00 6.06419196E-04-3.36159115E-03
 6  8 4.48264458E-03-1.12105343E-03-0.00000000E+00-0.00000000E+00-3.21230472E-04
 6  9-0.00000000E+00 1.07512420E-03-6.22873531E-04-6.58568453E-04 9.76353218E-05
 6 10-0.00000000E+00 7.38037212E-04-0.00000000E+00-7.83862019E-04-0.00000000E+00
 6 11 1.49666565E-01 2.05748340E-01 4.38598993E-03-0.00000000E+00 2.19664793E-03
 6 12-1.45202101E-02-0.00000000E+00 4.96824506E-03-2.72872356E-02-1.97707583E-03
 6 13-1.69983661E-03 3.67691245E-03-0.00000000E+00-0.00000000E+00-8.88472861E-04
 6 14-8.95362562E-04-1.28406976E-01-4.16743371E-02-1.98419340E-01-0.00000000E+00
 6 15-3.82682445E-02 2.95755330E-01-0.00000000E+00-4.65046230E-02 3.58072833E-01
 6 16-0.00000000E+00-2.68046456E-02 2.13014363E-01-3.60354828E-03-3.40013883E-03
 6 17 7.00368711E-03-0.00000000E+00-0.00000000E+00-1.69244914E-03-9.45337209E-03
 6 18-8.95696799E-03 1.84103401E-02-0.00000000E+00-0.00000000E+00-4.18393831E-03
 6 19-0.00000000E+00 7.18388341E-04 3.47671532E-03 3.31484186E-04-2.44569375E-03
 6 20-0.00000000E+00-2.21880933E-03-0.00000000E+00-1.29530329E-03-0.00000000E+00
 7  1-0.00000000E+00-0.00000000E+00-0.00000000E+00 1.19826292E-02-0.00000000E+00
 7  2-0.00000000E+00 2.99221727E-02-0.00000000E+00-0.00000000E+00-0.00000000E+00
 7  3-0.00000000E+00-0.00000000E+00-5.89795669E-03-2.93566593E-03-0.00000000E+00
 7  4-0.00000000E+00-0.00000000E+00-0.00000000E+00-0.00000000E+00 3.82090245E-01
 7  5-0.00000000E+00-0.00000000E+00 4.67473681E-01-0.00000000E+00-0.00000000E+00
 7  6 3.49049442E-01-0.00000000E+00-0.00000000E+00-0.00000000E+00-0.00000000E+00
 7  7-0.00000000E+00 3.25874350E-03 1.58772787E-03-0.00000000E+00-0.00000000E+00
 7  8-0.00000000E+00-0.00000000E+00 1.14982402E-02 3.00667838E-03-0.00000000E+00
 7  9-1.89769221E-03-0.00000000E+00-0.00000000E+00-0.00000000E+00-0.00000000E+00
 7 10 2.19707874E-03-0.00000000E+00 3.48942532E-04-0.00000000E+00 1.79537102E-03
 7 11-0.00000000E+00-0.00000000E+00-0.00000000E+00 2.45125497E-04-0.00000000E+00
 7 12-0.00000000E+00 6.34081184E-03-0.00000000E+00-0.00000000E+00-0.00000000E+00
 7 13-0.00000000E+00-0.00000000E+00 1.40479059E-04-3.49184811E-04-0.00000000E+00
 7 14-0.00000000E+00-0.00000000E+00-0.00000000E+00-0.00000000E+00 1.57637968E-02
 7 15-0.00000000E+00-0.00000000E+00 1.82084290E-02-0.00000000E+00-0.00000000E+00
 7 16 1.44255980E-02-0.00000000E+00-0.00000000E+00-0.00000000E+00-0.00000000E+00
 7 17-0.00000000E+00-4.22243164E-05 2.56074567E-04-0.00000000E+00-0.00000000E+00
 7 18-0.00000000E+00-0.00000000E+00 5.29072318E-05 2.14320180E-04-0.00000000E+00
 7 19-6.34822766E-05-0.00000000E+00-0.00000000E+00-0.00000000E+00-0.00000000E+00
 7 20-2.51064730E-05-0.00000000E+00 1.10276884E-04-0.00000000E+00-1.61358833E-05
 8  1 2.17360174E-03 1.98838379E-02 7.41763619E-03 0.00000000E+00-5.51952185E-03
 8  2 1.00096692E-02 0.00000000E+00-2.20555824E-02 2.04541465E-02-7.36041415E-04
 8  3 5.30451105E-03-4.56846963E-03 0.00000000E+00 0.00000000E+00-2.89006617E-03
 8  4 9.08465332E-04 1.91944787E-03 7.01482858E-04-2.43935679E-02 0.00000000E+00
 8  5-1.59036099E-01 3.23495436E-01 0.00000000E+00-1.96863260E-01 3.96110770E-01
 8  6 0.00000000E+00-1.55722349E-01 2.90927086E-01-1.40667874E-04-2.25516434E-03
 8  7 2.39583221E-03 0.00000000E+00 0.00000000E+00 2.24393780E-03 2.35400911E-03
 8  8-7.89576065E-03 5.54175154E-03 0.00000000E+00 0.00000000E+00 7.23594609E-03
 8  9 0.00000000E+00-2.12050014E-03 3.90470898E-04 3.92208169E-04-8.42485693E-04
 8 10 0.00000000E+00 3.18614011E-04 0.00000000E+00 2.45274131E-03 0.00000000E+00
 8 11 5.04384248E-02 6.60155778E-02-1.75895469E-02 0.00000000E+00 4.69883098E-04
 8 12-6.55452198E-03 0.00000000E+00-3.83737896E-03-1.23670337E-02 2.47188698E-04
 8 13 1.15095198E-04-3.62283896E-04 0.00000000E+00 0.00000000E+00-7.84430059E-05
 8 14-1.31592567E-04-3.27100298E-02-1.11587275E-02-5.28028495E-02 0.00000000E+00
 8 15-3.66364659E-02 1.15497494E-01 0.00000000E+00-4.43958188E-02 1.42885627E-01
 8 16 0.00000000E+00-3.14590125E-02 8.68439546E-02-1.38136744E-03-1.23538050E-03
 8 17 2.61674795E-03 0.00000000E+00 0.00000000E+00-9.07054153E-04-3.67599052E-03
 8 18-3.34624788E-03 7.02223840E-03 0.00000000E+00 0.00000000E+00-2.66293040E-03
 8 19 0.00000000E+00 4.77013395E-04 1.44320564E-03 2.27161699E-04-1.07095936E-03
 8 20 0.00000000E+00-8.65304185E-04 0.00000000E+00-8.67142326E-04 0.00000000E+00
 9  1-1.03623899E-03-1.04671333E-02 9.03875043E-03-0.00000000E+00 2.13660292E-04
 9  2 1.31969022E-03-0.00000000E+00-1.28462239E-04 7.40950342E-04-5.35758477E-05
 9  3 1.59666287E-04-1.06090439E-04-0.00000000E+00-0.00000000E+00-3.39259337E-04
 9  4 6.95449910E-05-5.01212555E-04-2.80958706E-04 1.75500566E-03-0.00000000E+00
 9  5-1.23721223E-02 1.98407589E-02-0.00000000E+00-1.54552940E-02 2.50900423E-02
 9  6-0.00000000E+00-6.28860514E-03 1.92414270E-02 7.31836690E-05-3.03638117E-04
 9  7 2.30454448E-04-0.00000000E+00-0.00000000E+00 3.90737999E-06-3.40258875E-04
 9  8-1.98823478E-05 3.60141223E-04-0.00000000E+00-0.00000000E+00 5.67207035E-04
 9  9-0.00000000E+00-1.30803987E-04-9.85303827E-06-3.93688503E-05-8.45083720E-05
 9 10-0.00000000E+00 9.77276100E-05-0.00000000E+00 2.14860814E-04-0.00000000E+00
 9 11 1.00461925E-03 3.24009402E-04-3.98427061E-03-0.00000000E+00 1.15912183E-02
 9 12 1.54656500E-03-0.00000000E+00 2.94639450E-02 4.13816003E-03 4.57110373E-05
 9 13 1.62328543E-03-1.66899647E-03-0.00000000E+00-0.00000000E+00-6.17849016E-03
 9 14-4.62125646E-04-1.83599989E-03-3.88012866E-04 2.27721592E-03-2.70233701E-11
 9 15 3.76099543E-01 5.71692647E-02-3.29716424E-11 4.58814861E-01 6.99985483E-02
 9 16-2.51764537E-11 3.50711985E-01 5.38579817E-02-2.32931519E-05-8.85465589E-04
 9 17 9.08758741E-04-0.00000000E+00-0.00000000E+00 3.37925436E-03-3.39737699E-04
 9 18-2.96931729E-03 3.30905499E-03-0.00000000E+00-0.00000000E+00 1.21887293E-02
 9 19-0.00000000E+00-1.46008185E-03 9.87803967E-04-7.38758905E-04-1.62471646E-04
 9 20-0.00000000E+00-1.16280645E-03-0.00000000E+00 2.69766427E-03-0.00000000E+00
10  1-0.00000000E+00-0.00000000E+00-0.00000000E+00-5.25443348E-04-0.00000000E+00
10  2-0.00000000E+00-2.65851977E-03-0.00000000E+00-0.00000000E+00-0.00000000E+00
10  3-0.00000000E+00-0.00000000E+00 4.75863205E-04 2.04419133E-04-0.00000000E+00
10  4-0.00000000E+00-0.00000000E+00-0.00000000E+00-0.00000000E+00-1.85390450E-02
10  5-0.00000000E+00-0.00000000E+00-2.35647054E-02-0.00000000E+00-0.00000000E+00
10  6-1.39985667E-02-0.00000000E+00-0.00000000E+00-0.00000000E+00-0.00000000E+00
10  7-0.00000000E+00-2.11949830E-04-9.51738339E-05-0.00000000E+00-0.00000000E+00
10  8-0.00000000E+00-0.00000000E+00-2.39903845E-04-6.08616198E-04-0.00000000E+00
10  9 3.27435961E-05-0.00000000E+00-0.00000000E+00-0.00000000E+00-0.00000000E+00
10 10-7.79164242E-05-0.00000000E+00 3.39862802E-05-0.00000000E+00-6.00533557E-05
10 11-0.00000000E+00-0.00000000E+00-0.00000000E+00 1.16509919E-02-0.00000000E+00
10 12-0.00000000E+00 3.00656985E-02-0.00000000E+00-0.00000000E+00-0.00000000E+00
10 13-0.00000000E+00-0.00000000E+00 9.23475652E-04-6.37495689E-03-0.00000000E+00
10 14-0.00000000E+00-0.00000000E+00-0.00000000E+00-0.00000000E+00 3.80745376E-01
10 15 2.66933946E-11-0.00000000E+00 4.64553566E-01 3.25641793E-11-0.00000000E+00
10 16 3.54721009E-01 2.48913496E-11-0.00000000E+00-0.00000000E+00-0.00000000E+00
10 17-0.00000000E+00-5.04742275E-04 3.51114869E-03-0.00000000E+00-0.00000000E+00
10 18-0.00000000E+00-0.00000000E+00-1.54512326E-03 1.25719955E-02-0.00000000E+00
10 19-1.67722746E-03-0.00000000E+00-0.00000000E+00-0.00000000E+00-0.00000000E+00
10 20-6.62870116E-04-0.00000000E+00 2.91310688E-03-0.00000000E+00-5.96190582E-04
11  1 5.52597957E-02 8.52459933E-02 1.28198369E+00 0.00000000E+00 1.14314831E-02
11  2 5.23592328E-03 0.00000000E+00-6.83424070E-02-2.92197241E-02-3.62569329E-03
11  3 5.54671327E-03-1.92101999E-03 0.00000000E+00 0.00000000E+00 4.97455194E-03
11  4 3.15210782E-02-7.65140443E-02-4.24608755E-02-7.43502197E-01 0.00000000E+00
11  5-8.59432632E-02-3.23942018E-02 0.00000000E+00-1.16733478E-01-4.10469197E-02
11  6 0.00000000E+00-2.54980370E-01-1.20480497E-01-1.05113415E-04 2.43592459E-04
11  7-1.38479044E-04 0.00000000E+00 0.00000000E+00 4.48304785E-04 5.04897081E-03
11  8-8.72305886E-03 3.67408806E-03 0.00000000E+00 0.00000000E+00-7.77629576E-03
11  9 0.00000000E+00-9.63343542E-04 9.51430778E-04 1.39235103E-03 7.59921150E-04
11 10 0.00000000E+00-2.03639949E-03 0.00000000E+00-9.98900384E-05 0.00000000E+00
11 11 1.30615030E-02 5.95425848E-03 2.35505507E-01 0.00000000E+00 6.44210249E-04
11 12 1.08418179E-02 0.00000000E+00-9.28717331E-03-4.38743712E-02-3.19695011E-04
11 13-6.51249870E-04 9.70944881E-04 0.00000000E+00 0.00000000E+00 6.93765146E-04
11 14 1.29631155E-03-3.38386660E-02-1.21935175E-02-1.49151513E-01 0.00000000E+00
11 15-1.93458185E-03-3.88375281E-02 0.00000000E+00-2.17794215E-03-5.28427348E-02
11 16 0.00000000E+00 1.21638530E-02-7.44094338E-02 1.29563094E-04 2.38360760E-04
11 17-3.67923854E-04 0.00000000E+00 0.00000000E+00-2.72112712E-04-4.69726402E-04
11 18-7.54171152E-04 1.22389755E-03 0.00000000E+00 0.00000000E+00 3.15701442E-03
11 19 0.00000000E+00-4.50128647E-05 4.44216551E-04-2.32353965E-05-2.92679687E-04
11 20 0.00000000E+00-3.03299356E-04 0.00000000E+00 8.36264916E-05 0.00000000E+00
12  1-1.43623543E-02 7.09385090E-02-6.68738365E-01-0.00000000E+00-8.93682477E-03
12  2-1.72574153E-04-0.00000000E+00-5.31100022E-03-3.14866205E-02-1.45825752E-03
12  3-1.95101087E-05 1.47776763E-03-0.00000000E+00-0.00000000E+00 2.41732948E-03
12  4-1.42560694E-02-5.18982608E-02-9.50549051E-03 2.47992204E-02-0.00000000E+00
12  5 4.19524793E-02 8.82210490E-02-0.00000000E+00 4.62129656E-02 9.72990399E-02
12  6-0.00000000E+00 6.43258720E-02 2.10126784E-01-1.01788512E-03 2.17086346E-04
12  7 8.00798774E-04-0.00000000E+00-0.00000000E+00 5.07165936E-04 2.70324377E-04
12  8-7.31216701E-03 7.04184263E-03-0.00000000E+00-0.00000000E+00 3.04093850E-03
12  9-0.00000000E+00-7.80661760E-04-1.95663636E-04-1.61427215E-04-4.35817546E-04
12 10-0.00000000E+00 6.98327861E-04-0.00000000E+00 1.20879487E-03-0.00000000E+00
12 11 5.64651191E-02 3.39712481E-02 1.63010856E+00-0.00000000E+00-2.81755532E-03
12 12 1.45633067E-02-0.00000000E+00 1.45986200E-02-1.25104989E-01-5.03666504E-03
12 13-4.44786264E-03 9.48452768E-03-0.00000000E+00-0.00000000E+00-2.27893723E-03
12 14 3.24364082E-02-8.19399848E-02-4.49559101E-02-8.57105192E-01-0.00000000E+00
12 15 1.79681180E-02-7.83466327E-02-0.00000000E+00 2.65109992E-02-1.06383958E-01
12 16-0.00000000E+00 4.49684133E-02-3.13647796E-01-7.44309551E-05-6.78273789E-05
12 17 1.42258334E-04-0.00000000E+00-0.00000000E+00-2.51045787E-05 7.29026896E-03
12 18 6.71573047E-03-1.40059994E-02-0.00000000E+00-0.00000000E+00 2.02470173E-03
12 19-0.00000000E+00-3.91445847E-04-1.85286801E-03-1.86475088E-04 1.33892958E-03
12 20-0.00000000E+00 1.14695372E-03-0.00000000E+00 7.11654802E-04-0.00000000E+00
13  1 1.26651963E-01 1.92691216E+00-1.01552669E+00-0.00000000E+00-4.51230784E-02
13  2-2.82175372E-02-0.00000000E+00 1.18639275E-01 1.38289167E-01-1.08708231E-02
13  3 1.77314088E-02-6.86058567E-03-0.00000000E+00-0.00000000E+00 1.26370585E-02
13  4-1.79547722E-02-1.28703707E-01-2.25649104E-02-3.79795372E-01-0.00000000E+00
13  5-1.19354981E-01-3.93579127E-02-0.00000000E+00-1.92516109E-01-5.84974342E-02
13  6-0.00000000E+00-6.43798812E-01-4.04373806E-01-7.66639989E-03 9.68174714E-03
13  7-2.01534725E-03-0.00000000E+00-0.00000000E+00 1.15877384E-02 1.23942443E-02
13  8-2.87495454E-02 1.63553011E-02-0.00000000E+00-0.00000000E+00-2.26885203E-02
13  9-0.00000000E+00-3.85687845E-03 4.21064480E-03 6.40980862E-03 3.77666350E-03
13 10-0.00000000E+00-9.42583630E-03-0.00000000E+00-1.23526317E-03-0.00000000E+00
13 11 4.34444838E-02 6.76554102E-01-2.30753954E-01-0.00000000E+00 1.52559476E-02
13 12-1.37170048E-02-0.00000000E+00-1.39587230E-01-4.62981537E-03-5.72468199E-03
13 13-6.05373734E-03 1.17784193E-02-0.00000000E+00-0.00000000E+00-2.32857388E-03
13 14-1.46550225E-03-3.29479972E-02-5.81887556E-03-2.30087929E-01-0.00000000E+00
13 15 3.12377318E-02-4.68327542E-02-0.00000000E+00 6.82252245E-02-8.54620047E-02
13 16-0.00000000E+00 5.48527844E-02-2.64168295E-01-2.57423081E-03-1.79822120E-03
13 17 4.37245201E-03-0.00000000E+00-0.00000000E+00-3.37664969E-03 9.96261894E-03
13 18 6.34090450E-03-1.63035234E-02-0.00000000E+00-0.00000000E+00 1.00871576E-02
13 19-0.00000000E+00-9.50681173E-04-3.49124914E-03-4.48995947E-04 2.57786409E-03
13 20-0.00000000E+00 2.10613816E-03-0.00000000E+00 1.72446858E-03-0.00000000E+00
14  1-4.41282684E-02-5.79225573E-01 4.97671786E-01-0.00000000E+00 2.72674128E-02
14  2 2.06952176E-03-0.00000000E+00-2.26512610E-01 1.04460438E-01 2.85478523E-03
14  3 2.05010664E-03-4.90489186E-03-0.00000000E+00-0.00000000E+00-1.18561067E-02
14  4-2.54655667E-02-5.97793936E-02-1.33569572E-02 1.67340049E-01-0.00000000E+00
14  5 5.94443368E-02 8.17986904E-02-0.00000000E+00 1.00315153E-01 1.36764141E-01
14  6-0.00000000E+00 1.54030004E-01-1.43944399E-01 1.92856238E-03-5.63497034E-03
14  7 3.70640796E-03-0.00000000E+00-0.00000000E+00 2.67397632E-04-2.23747160E-02
14  8-3.78740748E-03 2.61621235E-02-0.00000000E+00-0.00000000E+00 4.64777262E-04
14  9-0.00000000E+00 3.69663589E-03-3.88724194E-03-3.27077638E-03-1.02221832E-04
14 10-0.00000000E+00 5.31750416E-03-0.00000000E+00-1.68878110E-03-0.00000000E+00
14 11 1.11175784E-01 1.80102021E+00-1.09494548E+00-0.00000000E+00 4.69913020E-03
14 12-3.98384101E-02-0.00000000E+00 1.35318676E-02 1.36969042E-01-1.42228376E-02
14 13-1.36888435E-02 2.79116811E-02-0.00000000E+00-0.00000000E+00-7.04881383E-03
14 14-1.60952953E-02-9.81895017E-02-1.34660005E-02-3.41610551E-01-0.00000000E+00
14 15 9.88060527E-03-1.55345125E-01-0.00000000E+00 1.19796261E-02-2.86073787E-01
14 16-0.00000000E+00 9.42709214E-02-5.80043211E-01-6.08926936E-03-5.85734150E-03
14 17 1.19466109E-02-0.00000000E+00-0.00000000E+00-2.64256883E-03 1.51208112E-02
14 18 1.47957507E-02-2.99165619E-02-0.00000000E+00-0.00000000E+00 8.68635404E-03
14 19-0.00000000E+00-1.89080618E-03-8.83002562E-03-8.65949191E-04 6.17948593E-03
14 20-0.00000000E+00 5.66723659E-03-0.00000000E+00 3.40273189E-03-0.00000000E+00
15  1 7.36597602E-03-2.25368103E+00-4.89257107E-01-0.00000000E+00 2.56443038E-02
15  2 4.31477739E-02-0.00000000E+00 1.28659132E+00 4.29724405E-01 5.23182052E-02
15  3-6.77315135E-02 1.54133083E-02-0.00000000E+00-0.00000000E+00-8.26571622E-02
15  4 1.23528819E-03 3.74559009E-02-9.57402039E-03 2.38140522E+00-0.00000000E+00
15  5-1.91133324E-01 4.10328877E-02-0.00000000E+00-2.13285928E-01 2.36278655E-01
15  6-0.00000000E+00 1.88069730E+00 5.97720698E-01 1.05637082E-02-1.37662163E-02
15  7 3.20250804E-03-0.00000000E+00-0.00000000E+00-1.33502789E-02-1.02851653E-01
15  8 1.29760599E-01-2.69089456E-02-0.00000000E+00-0.00000000E+00 1.11735000E-01
15  9-0.00000000E+00 6.82021816E-03-6.78248081E-03-8.80027081E-03-3.45194589E-03
15 10-0.00000000E+00 1.25515988E-02-0.00000000E+00-3.50012039E-04-0.00000000E+00
15 11 1.18131612E-02 5.44933878E-01 1.86601849E-01-0.00000000E+00-4.06018272E-02
15 12-1.32619550E-03-0.00000000E+00 5.56124944E-01-1.52098908E-01-1.02977634E-02
15 13-7.48543707E-03 1.77832005E-02-0.00000000E+00-0.00000000E+00-1.33200921E-02
15 14-2.65531509E-02-1.01054248E-01-1.70021270E-02-4.35764076E-01-0.00000000E+00
15 15-6.96729162E-02-9.33904116E-03-0.00000000E+00-1.69315584E-01-5.33052889E-02
15 16-0.00000000E+00 3.42858859E-03-3.67339102E-01-1.68899895E-03-3.70253746E-03
15 17 5.39153641E-03-0.00000000E+00-0.00000000E+00 6.89498663E-03 1.28813383E-02
15 18 1.78367412E-02-3.07180795E-02-0.00000000E+00-0.00000000E+00-9.90323403E-03
15 19-0.00000000E+00 9.01711469E-04-1.73664879E-03 4.75358317E-04 7.23271556E-04
15 20-0.00000000E+00 1.60668729E-03-0.00000000E+00-1.68513120E-03-0.00000000E+00
16  1-0.00000000E+00-0.00000000E+00-0.00000000E+00-1.80652211E-02-0.00000000E+00
16  2-0.00000000E+00 4.06550245E-02-0.00000000E+00-0.00000000E+00-0.00000000E+00
16  3-0.00000000E+00-0.00000000E+00 2.63129687E-02 1.23348083E-02-0.00000000E+00
16  4-0.00000000E+00-0.00000000E+00-0.00000000E+00-0.00000000E+00-1.81617009E-01
16  5-0.00000000E+00-0.00000000E+00-4.92643120E-01-0.00000000E+00-0.00000000E+00
16  6 7.31157991E-01-0.00000000E+00-0.00000000E+00-0.00000000E+00-0.00000000E+00
16  7-0.00000000E+00-3.85483684E-03-2.10399415E-06-0.00000000E+00-0.00000000E+00
16  8-0.00000000E+00-0.00000000E+00 1.92742999E-02-2.26887596E-02-0.00000000E+00
16  9-3.93147960E-03-0.00000000E+00-0.00000000E+00-0.00000000E+00-0.00000000E+00
16 10 3.49451978E-03-0.00000000E+00 1.78011360E-03-0.00000000E+00 3.02600935E-03
16 11-0.00000000E+00-0.00000000E+00-0.00000000E+00-6.36004013E-02-0.00000000E+00
16 12-0.00000000E+00 7.66015276E-01-0.00000000E+00-0.00000000E+00-0.00000000E+00
16 13-0.00000000E+00-0.00000000E+00 2.94829371E-03-9.16527269E-03-0.00000000E+00
16 14-0.00000000E+00-0.00000000E+00-0.00000000E+00-0.00000000E+00-1.07319669E-01
16 15-0.00000000E+00-0.00000000E+00-2.67252300E-01-0.00000000E+00-0.00000000E+00
16 16-3.61641674E-02-0.00000000E+00-0.00000000E+00-0.00000000E+00-0.00000000E+00
16 17-0.00000000E+00-1.61981340E-03 1.11410263E-02-0.00000000E+00-0.00000000E+00
16 18-0.00000000E+00-0.00000000E+00 3.30127128E-03-1.87000146E-02-0.00000000E+00
16 19 1.34916745E-03-0.00000000E+00-0.00000000E+00-0.00000000E+00-0.00000000E+00
16 20 5.54422818E-04-0.00000000E+00-2.36452089E-03-0.00000000E+00 4.69310702E-04
17  1-5.26344471E-03 7.04018847E-01 1.94718827E-01-0.00000000E+00-2.80194153E-02
17  2 1.89571306E-02-0.00000000E+00-1.32684581E-01-6.12321761E-01-1.21059264E-02
17  3 8.52100207E-03 3.58492428E-03-0.00000000E+00-0.00000000E+00 3.06545599E-02
17  4-1.26138849E-03 2.92707332E-03 1.02556713E-02-7.20086133E-01-0.00000000E+00
17  5 2.78283708E-02 2.65543946E-02-0.00000000E+00 8.23687034E-03 6.24936466E-02
17  6-0.00000000E+00-6.59809528E-01-1.97418191E-01-1.37174362E-03 1.25747963E-02
17  7-1.12030527E-02-0.00000000E+00-0.00000000E+00-1.06090871E-03 3.10535815E-02
17  8-4.99124270E-02 1.88588455E-02-0.00000000E+00-0.00000000E+00-3.40489209E-02
17  9-0.00000000E+00-4.26671408E-03 1.06574205E-03 3.28618372E-03 1.60719168E-03
17 10-0.00000000E+00-3.03703468E-03-0.00000000E+00 2.43821392E-03-0.00000000E+00
17 11 3.46974637E-02 3.43045635E+00-2.61337310E-02-0.00000000E+00 1.13616576E-02
17 12-6.29831349E-02-0.00000000E+00 1.64925261E-01-1.63602762E+00-7.10901026E-02
17 13-6.45997245E-02 1.35689827E-01-0.00000000E+00-0.00000000E+00-3.41742620E-02
17 14-1.36024201E-02-9.45876000E-02 4.43730352E-03-3.00665531E+00-0.00000000E+00
17 15-1.08176284E-02 1.63634951E-01-0.00000000E+00 2.01296256E-02 6.95529943E-02
17 16-0.00000000E+00 3.63184654E-01-2.62080620E+00-1.50631515E-02-1.39166554E-02
17 17 2.89798069E-02-0.00000000E+00-0.00000000E+00-7.91945479E-03 1.17297493E-01
17 18 1.10187105E-01-2.27484598E-01-0.00000000E+00-0.00000000E+00 5.49253692E-02
17 19-0.00000000E+00-3.84813244E-03-1.80742619E-02-1.80214385E-03 1.28210294E-02
17 20-0.00000000E+00 1.14281376E-02-0.00000000E+00 6.96495528E-03-0.00000000E+00
18  1 0.00000000E+00 0.00000000E+00 0.00000000E+00-8.60496778E-02 0.00000000E+00
18  2 0.00000000E+00 1.15801664E+00 0.00000000E+00 0.00000000E+00 0.00000000E+00
18  3 0.00000000E+00 0.00000000E+00-2.31373737E-02-1.16543659E-02 0.00000000E+00
18  4 0.00000000E+00 0.00000000E+00 0.00000000E+00 0.00000000E+00-1.00654412E-01
18  5 0.00000000E+00 0.00000000E+00-2.36628500E-01 0.00000000E+00 0.00000000E+00
18  6-2.83033180E-01 0.00000000E+00 0.00000000E+00 0.00000000E+00 0.00000000E+00
18  7 0.00000000E+00 1.61017533E-02 7.37071198E-03 0.00000000E+00 0.00000000E+00
18  8 0.00000000E+00 0.00000000E+00-1.97031431E-02 6.18566790E-03 0.00000000E+00
18  9 3.48759948E-03 0.00000000E+00 0.00000000E+00 0.00000000E+00 0.00000000E+00
18 10-3.62250364E-03 0.00000000E+00-1.05660208E-03 0.00000000E+00-3.13581864E-03
18 11 0.00000000E+00 0.00000000E+00 0.00000000E+00 2.99440628E-02 0.00000000E+00
18 12 0.00000000E+00-3.64116336E-01 0.00000000E+00 0.00000000E+00 0.00000000E+00
18 13 0.00000000E+00 0.00000000E+00 7.04839933E-05 3.58445650E-03 0.00000000E+00
18 14 0.00000000E+00 0.00000000E+00 0.00000000E+00 0.00000000E+00 5.04812429E-02
18 15 0.00000000E+00 0.00000000E+00 1.24201060E-01 0.00000000E+00 0.00000000E+00
18 16 1.86573804E-02 0.00000000E+00 0.00000000E+00 0.00000000E+00 0.00000000E+00
18 17 0.00000000E+00 7.70188402E-04-5.20408340E-03 0.00000000E+00 0.00000000E+00
18 18 0.00000000E+00 0.00000000E+00-1.28420617E-03 7.18762377E-03 0.00000000E+00
18 19-5.15078693E-04 0.00000000E+00 0.00000000E+00 0.00000000E+00 0.00000000E+00