! https://gamess.gitbooks.io/gamess-input-description/content
 $CONTRL EXETYP=RUN $END
 $SYSTEM PARALL=.T. $END
 $SYSTEM MWORDS=305 $END
 $SYSTEM MEMDDI=155480 $END
 $CONTRL SCFTYP=RHF MULT=1 ICHARG=0 ISPHER=1 $END
 $CONTRL CCTYP=CCSD $END
 $CONTRL RUNTYP=ENERGY $END
 $CONTRL MPLEVL=0 $END
 $CONTRL MAXIT=100 $END
 $CONTRL QMTTOL=1.0E-6 $END
 $SCF DIRSCF=.T. DIIS=.T. SOSCF=.F. FDIFF=.F. $END
 $BASIS GBASIS=CCT $END
 $STATPT NSTEP=1000 OPTTOL=0.0001 $END
 $DATA
 misc : N,N-bis[(2S)-2-hydroxy-3-phenoxypropyl]aniline : CCT
C1
 N           7.0  -0.0052722923   1.2372688601   0.0334228248
 C           6.0   0.0139584104  -0.1464552740   0.0137501462
 C           6.0  -1.1627260019  -0.9038540083  -0.0538632694
 C           6.0  -1.1342793832  -2.2827153825  -0.0746129665
 C           6.0   0.0530429671  -2.9823882176  -0.0248587221
 C           6.0   1.2206817401  -2.2518310490   0.0449446862
 C           6.0   1.2111716518  -0.8725649529   0.0618245217
 C           6.0   1.2006532892   2.0288945934   0.0158541671
 C           6.0   1.6353324561   2.4938356320  -1.3837898878
 C           6.0   2.9926876649   3.1723550410  -1.2999185961
 O           8.0   1.6171291411   1.4762224231  -2.3363205193
 O           8.0   3.2422465666   3.8080940781  -2.5148791698
 C           6.0   4.4245637143   4.4085034305  -2.7418243668
 C           6.0   4.6154073539   4.9005177001  -4.0283790330
 C           6.0   5.7880411201   5.5375310121  -4.3548781034
 C           6.0   6.7936855213   5.6978593489  -3.4119539764
 C           6.0   6.5987872489   5.2087318073  -2.1416956099
 C           6.0   5.4197955395   4.5631852661  -1.7948783718
 C           6.0  -1.2331666347   1.9948064708   0.0421111410
 C           6.0  -1.7053729804   2.4229557584   1.4405818894
 C           6.0  -3.0687498159   3.0869572738   1.3372594440
 O           8.0  -1.6974579113   1.3841166495   2.3702783260
 O           8.0  -3.3654011323   3.6802597991   2.5628275478
 C           6.0  -4.5641140537   4.2555099381   2.7690037102
 C           6.0  -4.8136786603   4.6850346613   4.0677704399
 C           6.0  -6.0069928620   5.2932365899   4.3742979545
 C           6.0  -6.9751677468   5.4862185273   3.3989238545
 C           6.0  -6.7222929035   5.0586869307   2.1166068621
 C           6.0  -5.5219814750   4.4427288046   1.7897907542
 H           1.0  -2.1207953562  -0.4333545319  -0.1011304128
 H           1.0  -2.0669439915  -2.8123809063  -0.1317301099
 H           1.0   0.0677657028  -4.0539569584  -0.0396413582
 H           1.0   2.1675052709  -2.7570043996   0.0883337073
 H           1.0   2.1560284043  -0.3773799137   0.1236289670
 H           1.0   1.0406757761   2.9123474380   0.6223933912
 H           1.0   2.0044760040   1.4974318605   0.5018765786
 H           1.0   0.9279374400   3.2264381145  -1.7495803018
 H           1.0   2.9950495906   3.8941725324  -0.4875762237
 H           1.0   3.7622547358   2.4315803212  -1.0946554304
 H           1.0   2.1217124980   0.7330721729  -2.0581441908
 H           1.0   3.8331687592   4.7673558078  -4.7493659040
 H           1.0   5.9235957215   5.9111362313  -5.3520210161
 H           1.0   7.7081560280   6.1947631786  -3.6706250055
 H           1.0   7.3650670338   5.3240476989  -1.3986762534
 H           1.0   5.2981896457   4.1963960878  -0.7967179108
 H           1.0  -1.0872500853   2.8927365910  -0.5461369128
 H           1.0  -2.0136689696   1.4502777325  -0.4673579640
 H           1.0  -1.0150049543   3.1550763683   1.8391205563
 H           1.0  -3.0549346161   3.8338490085   0.5482524639
 H           1.0  -3.8221575227   2.3442089643   1.0845993667
 H           1.0  -2.1883297188   0.6426768431   2.0645395099
 H           1.0  -4.0600555169   4.5270307841   4.8137672545
 H           1.0  -6.1880843058   5.6184516643   5.3811944417
 H           1.0  -7.9057392239   5.9605702608   3.6421750387
 H           1.0  -7.4588533667   5.2000903533   1.3484551855
 H           1.0  -5.3548955149   4.1239649841   0.7817268555
 $END
