! https://gamess.gitbooks.io/gamess-input-description/content
 $CCINP IOSIZE=263428621 $END
 $CONTRL EXETYP=RUN $END
 $SYSTEM PARALL=.T. $END
 $SYSTEM MWORDS=435 $END
 $SYSTEM MEMDDI=261380 $END
 $CONTRL SCFTYP=RHF MULT=1 ICHARG=0 ISPHER=1 $END
 $CONTRL CCTYP=CCSD $END
 $CONTRL RUNTYP=ENERGY $END
 $CONTRL MPLEVL=0 $END
 $CONTRL MAXIT=100 $END
 $CONTRL QMTTOL=1.0E-6 $END
 $SCF DIRSCF=.T. DIIS=.T. SOSCF=.F. FDIFF=.F. $END
 $BASIS GBASIS=CCT $END
 $STATPT NSTEP=1000 OPTTOL=0.0001 $END
 $DATA
 misc : cholesterol : CCT : OPTTOL=0.000005
C1
 O           8.0   7.5520114869   1.6173231512  -0.2576860474
 C           6.0  -0.7507162606  -1.1318332646  -0.2865341819
 C           6.0  -0.0432685864  -0.4690031478   0.9124733020
 C           6.0   1.4783224806  -0.5931007612   0.9313465622
 C           6.0   2.0635779415  -0.0145889575  -0.3713024782
 C           6.0  -2.2327910611  -0.8087203900   0.0710530450
 C           6.0  -0.1890776084  -0.4596379753  -1.5456379936
 C           6.0   3.6154729349  -0.1442046526  -0.4459773179
 C           6.0  -0.8348176967  -0.9397159854   2.1300137102
 C           6.0   1.3401666678  -0.5596886157  -1.6149591418
 C           6.0  -2.2845199190  -1.0375128729   1.6075859878
 C           6.0   2.0688353801   0.1409270369   2.1334660575
 C           6.0  -3.3759723145  -1.5317170611  -0.6698546095
 C           6.0  -0.5301830880  -2.6541924266  -0.3426683036
 C           6.0   4.2403217290   0.2540753599   0.8925007370
 C           6.0   4.1425831343   0.8309428015  -1.5296297741
 C           6.0   3.5411624126   0.3865523577   2.0023426302
 C           6.0   4.0552346578  -1.5834534333  -0.7900648365
 C           6.0   5.7322236093   0.5052716405   0.8951436206
 C           6.0   5.6567989528   1.0288223893  -1.5391082739
 C           6.0  -4.7661005109  -1.1663559192  -0.1072599250
 C           6.0   6.1547699862   1.4928039456  -0.1862230761
 C           6.0  -3.3506199221  -1.3344652923  -2.1899896649
 C           6.0  -5.2079922984   0.2924024317  -0.2461302329
 C           6.0  -6.6197151943   0.5064474263   0.3034954025
 C           6.0  -7.1834139713   1.9343224789   0.2293032895
 C           6.0  -7.3446284864   2.4362077275  -1.2065545089
 C           6.0  -6.3876160080   2.9327806793   1.0715797040
 H           1.0  -0.2508797204   0.5958256380   0.8087967986
 H           1.0   1.7529094034  -1.6395242362   1.0165172351
 H           1.0   1.8571501092   1.0538880917  -0.3331638677
 H           1.0  -2.3523457027   0.2553989503  -0.1096547355
 H           1.0  -0.4809898501   0.5873703373  -1.5439230221
 H           1.0  -0.5971143661  -0.8911455250  -2.4496132001
 H           1.0  -0.7484875765  -0.2589483791   2.9668951555
 H           1.0  -0.4805289917  -1.9048110112   2.4748996323
 H           1.0   1.6099185761  -1.5942758543  -1.7777682584
 H           1.0   1.6731024251  -0.0225045944  -2.4946083037
 H           1.0  -2.7058632581  -2.0095509136   1.8336934211
 H           1.0  -2.9261223819  -0.3090660321   2.0862091874
 H           1.0   1.8821823085  -0.4215197600   3.0426020792
 H           1.0   1.5620638988   1.0953765014   2.2682129068
 H           1.0  -3.2640704822  -2.5964240233  -0.4852298250
 H           1.0  -0.9846700877  -3.0719740005  -1.2327102991
 H           1.0   0.5167683486  -2.9188449182  -0.3666226451
 H           1.0  -0.9670845208  -3.1600107703   0.5083907935
 H           1.0   3.6739897209   1.7986265836  -1.3748079094
 H           1.0   3.8288873732   0.4904650457  -2.5079388408
 H           1.0   4.0501611896   0.6947704646   2.9001526309
 H           1.0   3.7976170292  -1.8428759864  -1.8086220721
 H           1.0   5.1242453629  -1.7057433496  -0.6930631114
 H           1.0   3.5918838943  -2.3047752660  -0.1293751916
 H           1.0   6.0353019324   0.8692494562   1.8708070827
 H           1.0   6.2762171945  -0.4182561148   0.7234450989
 H           1.0   6.1719466970   0.1111206228  -1.8007907914
 H           1.0   5.9256300759   1.7607980138  -2.2918315210
 H           1.0  -5.4951223986  -1.7939555360  -0.6129976853
 H           1.0  -4.8161887989  -1.4448519014   0.9391835410
 H           1.0   5.7132788479   2.4638152901   0.0344985137
 H           1.0  -3.2676807274  -0.2890883530  -2.4637090971
 H           1.0  -4.2616988509  -1.7195295591  -2.6351213180
 H           1.0  -2.5253881946  -1.8583600579  -2.6502450967
 H           1.0  -4.5129739115   0.9373069474   0.2786601266
 H           1.0  -5.1751144225   0.5861079790  -1.2887114923
 H           1.0   7.8891001782   1.9480047095   0.5550633572
 H           1.0  -6.6395670901   0.1877592103   1.3427952280
 H           1.0  -7.3015226892  -0.1549926588  -0.2252070687
 H           1.0  -8.1804968533   1.8808320850   0.6600108023
 H           1.0  -7.9121003124   1.7337565746  -1.8076646195
 H           1.0  -7.8700018068   3.3848067317  -1.2234745323
 H           1.0  -6.3860472712   2.5883612918  -1.6896555720
 H           1.0  -6.2737570051   2.5838709250   2.0924553913
 H           1.0  -6.8918794129   3.8923238169   1.1051891069
 H           1.0  -5.3967031093   3.1021048336   0.6655086856
 $END
