! https://gamess.gitbooks.io/gamess-input-description/content
 $CCINP IOSIZE=251518808 $END
 $CONTRL EXETYP=RUN $END
 $SYSTEM PARALL=.T. $END
 $SYSTEM MWORDS=70 $END
 $SYSTEM MEMDDI=9780 $END
 $CONTRL SCFTYP=RHF MULT=1 ICHARG=0 ISPHER=1 $END
 $CONTRL CCTYP=CCSD(T) $END
 $CONTRL RUNTYP=ENERGY $END
 $CONTRL MPLEVL=0 $END
 $CONTRL MAXIT=100 $END
 $CONTRL QMTTOL=1.0E-6 $END
 $SCF DIRSCF=.T. DIIS=.T. SOSCF=.F. FDIFF=.F. $END
 $BASIS GBASIS=CCT $END
 $STATPT NSTEP=1000 OPTTOL=0.0001 $END
 $DATA
 s66 : uracil-uracil-bp : CCT
 C1
 N           7.0  -0.7944836073   0.0905672677   0.0046743582
 H           1.0   0.2075257380   0.1619793783   0.0075434119
 C           6.0  -1.3360739618  -1.1709702424   0.0035065790
 O           8.0  -0.6330229139  -2.1449547370   0.0068940602
 C           6.0  -2.7908134227  -1.2229697897  -0.0018639168
 H           1.0  -3.2686484844  -2.1776995565  -0.0032052477
 C           6.0  -3.4708979523  -0.0831598034  -0.0051825813
 H           1.0  -4.5421560426  -0.0526506893  -0.0091567400
 N           7.0  -2.8493283081   1.1285757646  -0.0033414517
 H           1.0  -3.3685689867   1.9729209686  -0.0054689401
 C           6.0  -1.4832625834   1.2735906338   0.0016606533
 O           8.0  -0.9620325019   2.3391355672   0.0031653892
 N           7.0   4.2018660992  -1.1210396359  -0.0014091181
 H           1.0   4.6360528447  -0.2262373154  -0.0026479206
 C           6.0   5.0442579041  -2.2255520957  -0.0053103343
 O           8.0   6.2243233553  -2.0798000489  -0.0099674047
 C           6.0   4.3404602067  -3.5021690622  -0.0032483849
 H           1.0   4.9155195753  -4.4019930098  -0.0057928018
 C           6.0   3.0126973471  -3.5046367497   0.0017970105
 H           1.0   2.4407943422  -4.4108048882   0.0034485759
 N           7.0   2.2728262799  -2.3580078924   0.0052933922
 H           1.0   1.2719684369  -2.3835498647   0.0079100579
 C           6.0   2.8401512444  -1.1239273372   0.0037002438
 O           8.0   2.1971244985  -0.1117780269   0.0066034921
 $END
