! https://gamess.gitbooks.io/gamess-input-description/content
 $CONTRL EXETYP=RUN $END
 $SYSTEM MWORDS=1500 $END
 $SYSTEM MEMDDI=500 $END
 $CONTRL SCFTYP=RHF MULT=1 ICHARG=0 ISPHER=1 $END
 $CONTRL CCTYP=CCSD(T) $END
 $CONTRL RUNTYP=ENERGY $END
 $CONTRL MPLEVL=0 $END
 $CONTRL MAXIT=100 $END
 $CONTRL QMTTOL=1.0E-6 $END
 $SCF DIRSCF=.T. $END
 $BASIS GBASIS=CCT $END
 $STATPT NSTEP=1000 OPTTOL=0.0001 $END
 $MP2 CODE=DDI $END
 $SYSTEM PARALL=.T. $END
 $DATA
 andrey : cytosine : CCT
C1
 N           7.0  -2.2896052461  -2.3572258844   0.3963757809
 C           6.0  -2.5966109375  -0.9808928990   0.0853969457
 C           6.0  -1.4095246996   0.0124107212   0.2878948660
 C           6.0  -0.1829429551  -0.4733053178  -0.5007174640
 C           6.0   0.0274501433  -1.9848876247  -0.3859819573
 C           6.0  -1.3052259181  -2.7279147888  -0.5980639225
 C           6.0  -2.1728013775  -2.8632499771   1.7430940218
 C           6.0  -2.9194782124  -1.1101803685  -1.4177082920
 C           6.0  -2.0299716433  -2.2914411783  -1.8848552848
 C           6.0  -1.1160622841   0.2354468722   1.7634159538
 O           8.0  -1.7670527241   1.2171581914   2.3910886147
 C           6.0  -2.5176545971   2.2173213115   1.7532864917
 O           8.0  -0.3914994117  -0.4417826072   2.3983280874
 O           8.0   0.9098213325   0.3082792746  -0.1177979399
 C           6.0   2.0619614097   0.1968205365  -0.8971746631
 C           6.0   3.0041831247   1.3298994318  -0.5792285773
 C           6.0   4.2934496789   1.0795327292  -0.1518155684
 C           6.0   5.1666428369   2.1220717591   0.1139630954
 C           6.0   4.7518715632   3.4268806397  -0.0420730907
 C           6.0   3.4589680541   3.6875907292  -0.4664718959
 C           6.0   2.5951609377   2.6477729138  -0.7333372363
 H           1.0  -0.3914887753  -0.2513692712  -1.5442844494
 H           1.0  -3.4522079660  -0.6452995594   0.6569601038
 H           1.0  -1.7014244075   0.9565345873  -0.1463577122
 H           1.0   0.7448872379  -2.3134562685  -1.1307221281
 H           1.0   0.4326978263  -2.2195769223   0.5887733566
 H           1.0  -1.1306178784  -3.7956922270  -0.5739608966
 H           1.0  -2.3414196802  -3.9344919921   1.7230332940
 H           1.0  -1.2237802615  -2.6719220876   2.2249444606
 H           1.0  -2.9491647786  -2.4244220912   2.3579541089
 H           1.0  -2.7359370428  -0.1972967978  -1.9700575189
 H           1.0  -3.9649862864  -1.3567573906  -1.5345509153
 H           1.0  -1.3497261189  -2.0176368009  -2.6811386869
 H           1.0  -2.6441028033  -3.1030196619  -2.2480356266
 H           1.0  -2.8979768255   2.8457402661   2.5425656552
 H           1.0  -1.9016458281   2.8171091629   1.0964374341
 H           1.0  -3.3535880496   1.8111754192   1.1995033054
 H           1.0   1.7955560739   0.2288144349  -1.9533496921
 H           1.0   2.5603467945  -0.7484428656  -0.7162385524
 H           1.0   4.6225882993   0.0662674800  -0.0167841155
 H           1.0   6.1643368880   1.9095603826   0.4477926078
 H           1.0   5.4245495624   4.2367903425   0.1662300485
 H           1.0   3.1288360146   4.7018407911  -0.5886216470
 H           1.0   1.5931889307   2.8555466049  -1.0577103991
 $END
