! https://gamess.gitbooks.io/gamess-input-description/content
 $CONTRL EXETYP=RUN $END
 $SYSTEM PARALL=.T. $END
 $SYSTEM MWORDS=630 $END
 $SYSTEM MEMDDI=775000 $END
 $CONTRL SCFTYP=RHF MULT=1 ICHARG=0 ISPHER=1 $END
 $CONTRL CCTYP=CCSD(T) $END
 $CONTRL RUNTYP=ENERGY $END
 $CONTRL MPLEVL=0 $END
 $CONTRL MAXIT=100 $END
 $CONTRL QMTTOL=1.0E-6 $END
 $SCF DIRSCF=.T. $END
 $BASIS GBASIS=CCT $END
 $STATPT NSTEP=1000 OPTTOL=0.0001 $END
 $DATA
 misc : C60 : CCT
C1
 C           6.0   2.6053235472   1.3308280351  -1.8092884052
 C           6.0   2.1373021550   2.4705765421  -2.5667088811
 C           6.0   1.8522335151   1.2741711626  -0.5758573176
 C           6.0   3.9346863740   1.0042735609  -1.8151794468
 C           6.0   1.0949016638   3.1182516122  -1.8014228535
 C           6.0   3.0237364292   3.2226905246  -3.2895065496
 C           6.0   0.9186776685   2.3787951971  -0.5710209962
 C           6.0   0.9948046853   4.4835008977  -1.7998788825
 C           6.0   0.6518129431   3.0442235891   0.5951345069
 C           6.0   2.4687980559   0.8938761416   0.5856641995
 C           6.0   0.7127705757   5.1864925421  -0.5678119316
 C           6.0   1.9313057632   5.2782040745  -2.5635275444
 C           6.0   0.5460409675   4.4866236968   0.5967824519
 C           6.0   1.4749652813   6.4156327791  -0.5699994407
 C           6.0   1.1320092510   4.9763692010   1.8249951164
 C           6.0   1.3032518337   2.6425118988   1.8223294998
 C           6.0   2.1867709055   1.5969208892   1.8177055833
 C           6.0   1.5999943335   3.8366260959   2.5824370207
 C           6.0   3.4169679716   1.6863434302   2.5729264617
 C           6.0   3.8733135965   0.5488797498   0.5794205972
 C           6.0   4.5861170569   0.6024546609  -0.5880285653
 C           6.0   4.4593017166   1.0385155650   1.8076759541
 C           6.0   5.9252000343   1.1488707320  -0.5932406249
 C           6.0   4.8712238607   1.7988083927  -2.5789598165
 C           6.0   4.4282384541   2.8776428119  -3.2957609799
 C           6.0   6.1013830246   1.8882944252  -1.8236675936
 C           6.0   5.1904195106   4.1067896407  -3.2979989985
 C           6.0   2.9178684361   4.6650920563  -3.2878770964
 C           6.0   4.2569612567   5.2114979751  -3.2931073879
 C           6.0   2.2280609907   6.4723202018  -1.8034275169
 C           6.0   5.7267429370   1.5557221376   1.8027127190
 C           6.0   6.4798075219   1.6124406837   0.5692649995
 C           6.0   6.0234882732   2.7498542115   2.5627990856
 C           6.0   7.2420076220   2.8415740321   0.5670768567
 C           6.0   6.8227710893   3.0516873753  -1.8257166719
 C           6.0   6.3547687614   4.1914308469  -2.5831434260
 C           6.0   7.4087855307   3.5414301436  -0.5975227758
 C           6.0   6.6515486358   5.3855529745  -1.8230629266
 C           6.0   4.5378191942   6.3417150785  -2.5736522592
 C           6.0   3.4954842866   6.9895683134  -1.8084196978
 C           6.0   5.7680181646   6.4311364268  -1.8184374420
 C           6.0   4.0814782221   7.4791540606  -0.5801451981
 C           6.0   2.0295618489   6.8792104341   0.5925140976
 C           6.0   1.8533919845   6.1397662963   1.8229312349
 C           6.0   3.3686596009   7.4255898468   0.5872907315
 C           6.0   3.0835585017   6.2292333091   2.5782096288
 C           6.0   2.7643613683   3.9212739028   3.2972682477
 C           6.0   3.6978184236   2.8165654521   3.2923768928
 C           6.0   3.5265472859   5.1504181945   3.2950326516
 C           6.0   5.0369092444   3.3629700929   3.2871190955
 C           6.0   4.0200917033   7.0237901316   1.8144477444
 C           6.0   5.3494573272   6.6972423644   1.8085670587
 C           6.0   4.9310515496   4.8053721260   3.2888010434
 C           6.0   5.8174689205   5.5574819932   2.5659739284
 C           6.0   6.9599898781   3.5445595017   1.7991502072
 C           6.0   6.8598717931   4.9098071435   1.8006938794
 C           6.0   7.3029715834   4.9838293311  -0.5958618893
 C           6.0   7.0360691577   5.6492523119   0.5702829005
 C           6.0   5.4859960453   7.1341765505  -0.5863937272
 C           6.0   6.1025616867   6.7539166510   0.5751424480
 $END
