! https://gamess.gitbooks.io/gamess-input-description/content
 $CONTRL EXETYP=RUN $END
 $SYSTEM MWORDS=1500 $END
 $SYSTEM MEMDDI=500 $END
 $CONTRL SCFTYP=RHF MULT=1 ICHARG=+2 NZVAR=255 ISPHER=1 $END
 $CONTRL CCTYP=CCSD(T) $END
 $CONTRL RUNTYP=ENERGY $END
 $CONTRL MPLEVL=0 $END
 $CONTRL MAXIT=100 $END
 $CONTRL QMTTOL=1.0E-6 $END
 $SCF DIRSCF=.T. $END
 $BASIS GBASIS=CCT $END
 $STATPT NSTEP=1000 OPTTOL=0.0001 $END
 $zmat   auto=.true. dlc=.true. $end
 $MP2 CODE=DDI $END
 $SYSTEM PARALL=.T. $END
 $DATA
 andrey : d-tubocurarine : CCT
C1
 C           6.0   5.7552121650   3.3363281950   0.5367649866
 C           6.0   6.2787067974   2.0394002615  -0.0476009474
 C           6.0   3.5085767641   2.3683123317   1.0507383277
 C           6.0   3.9379030625   1.1489526858   0.2586135437
 C           6.0   3.0032300821   0.1224631714   0.0728411039
 C           6.0   3.3064057364  -0.9832757593  -0.6615247935
 C           6.0   4.5943152763  -1.1340523333  -1.2080825543
 C           6.0   5.5125832944  -0.1326354179  -1.0116592330
 C           6.0   5.1921217468   1.0164780687  -0.2842614600
 N           7.0   4.7281687546   3.0795414183   1.6001418684
 H           1.0   4.4130508610   3.9809865780   1.9080066412
 C           6.0   5.2946438044   2.4022872824   2.8006980571
 O           8.0   4.8201510636  -2.2706548077  -1.8569627189
 C           6.0   6.0595097114  -2.4986444374  -2.4880247204
 C           6.0   2.6282416472   3.3962325973   0.2996370461
 C           6.0   1.2770742478   2.8411817450  -0.0865533503
 C           6.0   1.0338147666   2.4149354493  -1.3827403844
 C           6.0  -0.1557425907   1.8117617996  -1.7212675569
 C           6.0  -1.1266150548   1.6212911975  -0.7565309177
 C           6.0  -0.9360151326   2.0939443138   0.5250847864
 C           6.0   0.2649005525   2.7009798526   0.8460017407
 O           8.0   2.4120641293  -1.9669620384  -0.9517328107
 C           6.0  -0.7004856077  -2.2870504420   0.9427040524
 C           6.0  -0.3044398936  -3.2669318437   1.8379831334
 C           6.0   0.9574556670  -3.8258481825   1.7902266721
 C           6.0   1.8721867066  -3.3924544413   0.8508569893
 C           6.0   1.4989526685  -2.3780706110  -0.0186492963
 C           6.0   0.2282067264  -1.8521340796   0.0081422815
 O           8.0   3.0888072418  -3.9427993164   0.8100750054
 H           1.0   3.5290884501  -3.7347799053   0.0012651665
 O           8.0  -2.1998883728   0.8831188873  -1.1485249838
 C           6.0  -2.0595021636  -1.6221565017   1.0655749020
 C           6.0  -5.9620540662   0.7297246594   0.4947612333
 C           6.0  -5.4510911156   1.9402403521   0.1095526860
 C           6.0  -4.1571337182   2.0115971458  -0.4304651856
 C           6.0  -3.4066686108   0.8716540678  -0.5169646545
 O           8.0  -3.6576494538   3.1685286382  -0.8728606328
 H           1.0  -4.2989659910   3.8553329769  -0.7823706894
 O           8.0  -6.0813836230   3.1148365224   0.1587051351
 C           6.0  -7.4133698271   3.1959159848   0.6149901889
 C           6.0  -4.8971062764  -2.9346119924   0.6938064344
 C           6.0  -2.9984032555  -1.5810128543  -0.1696658421
 C           6.0  -3.9125263530  -0.3684421859  -0.0962788643
 C           6.0  -5.1963156064  -0.4326908663   0.3832224078
 C           6.0  -5.8543929031  -1.7561594077   0.6902331214
 N           7.0  -3.8399536799  -2.8386025028  -0.3675367782
 C           6.0  -3.0087123102  -4.0750360566  -0.3104298389
 C           6.0  -4.4634109618  -2.8020012963  -1.7268950531
 H           1.0   5.2757826300   3.9397146529  -0.2158911710
 H           1.0   6.5429040429   3.9214619520   0.9859586911
 H           1.0   6.7800518964   2.2821453250  -0.9751739141
 H           1.0   7.0367802312   1.6162761624   0.6014940811
 H           1.0   2.9618218123   2.0458234615   1.9248558826
 H           1.0   2.0268531986   0.2074560080   0.5006512853
 H           1.0   6.5018485830  -0.2301122903  -1.4095977711
 H           1.0   4.5546084944   2.4191352582   3.5847094858
 H           1.0   5.5417472852   1.3845172102   2.5548963802
 H           1.0   6.1760163160   2.9360767597   3.1194167244
 H           1.0   6.2566826727  -1.7417507551  -3.2360000152
 H           1.0   6.8652068597  -2.5246470732  -1.7655351503
 H           1.0   5.9776602980  -3.4597523769  -2.9659930437
 H           1.0   2.4883154691   4.2583325629   0.9468771737
 H           1.0   3.1365531625   3.7398274058  -0.5897355094
 H           1.0   1.7860043546   2.5359319769  -2.1386305938
 H           1.0  -0.3379475061   1.4731185731  -2.7215720442
 H           1.0  -1.7032498456   1.9995734795   1.2668470974
 H           1.0   0.4019706244   3.0597916670   1.8499361744
 H           1.0  -0.9852213548  -3.6100143158   2.5951792311
 H           1.0   1.2454758130  -4.5990922980   2.4744395315
 H           1.0  -0.0107069140  -1.0821342235  -0.6990135270
 H           1.0  -2.5839694285  -2.0284862282   1.9186960721
 H           1.0  -1.8954584730  -0.5851086881   1.3152386524
 H           1.0  -6.9617420924   0.6612615926   0.8724283214
 H           1.0  -8.0703000905   2.6068525479  -0.0112579807
 H           1.0  -7.4876028248   2.8688834088   1.6437319116
 H           1.0  -7.6903205876   4.2339954787   0.5482635560
 H           1.0  -5.4248205887  -3.8620271817   0.5320616235
 H           1.0  -4.3822481941  -3.0111038682   1.6357547471
 H           1.0  -6.3353318043  -1.7295855546   1.6594987459
 H           1.0  -6.6452311888  -1.9274141245  -0.0309180327
 H           1.0  -2.1797514863  -3.9793911927  -0.9915175831
 H           1.0  -2.6424434667  -4.2260181161   0.6870913025
 H           1.0  -3.6266713936  -4.9103195219  -0.5987061758
 H           1.0  -3.6785210129  -2.8575006641  -2.4636846123
 H           1.0  -5.1165476369  -3.6538385319  -1.8290769950
 H           1.0  -5.0173927952  -1.8915144572  -1.8583733298
 H           1.0  -2.3978789408  -1.5178805813  -1.0613457918
 $END
