! https://gamess.gitbooks.io/gamess-input-description/content
 $CONTRL EXETYP=RUN $END
 $SYSTEM MWORDS=5 $END
 $SYSTEM MEMDDI=0 $END
 $CONTRL SCFTYP=RHF MULT=1 ICHARG=0 ISPHER=1 $END
 $CONTRL DFTTYP=PBE0 $END
 $DFT NRAD=96 NLEB=1202 $END
 $DFT NRAD0=96 NLEB0=1202 $END
 $CONTRL RUNTYP=ENERGY $END
 $CONTRL MPLEVL=0 $END
 $CONTRL MAXIT=100 $END
 $CONTRL QMTTOL=1.0E-6 $END
 $SCF DIRSCF=.T. $END
 $BASIS GBASIS=CCT $END
 $STATPT NSTEP=1000 OPTTOL=0.0001 $END
 $DATA
 water clusters : 7CH2 : CCT
 C1
 O           8.0  -3.0922103371   1.4231796937   0.5605789691
 H           1.0  -3.1023983209   1.6987231220   1.4594347977
 H           1.0  -3.2172515594   0.4823793290   0.5686508336
 O           8.0   1.8504675864  -2.0586003692   0.5460201068
 H           1.0   1.8442852167  -2.3956626890   1.4236774297
 H           1.0   2.4323745295  -1.3041945262   0.5509576380
 O           8.0  -3.0366907845  -1.4670676187   0.4400678699
 H           1.0  -2.2225622299  -1.6421362055  -0.0143661466
 H           1.0  -3.6866564826  -2.0297100305   0.0595854166
 O           8.0   1.8824188199   2.4418747719  -0.2598397779
 H           1.0   1.0232962347   2.1482945695  -0.5506683487
 H           1.0   1.7645556261   3.2946408900   0.1168007247
 O           8.0  -0.6217450850   1.3928263129  -1.0537144992
 H           1.0  -1.4162291383   1.5637343034  -0.5661158561
 H           1.0  -0.5724915994   0.4529545886  -1.1385207479
 O           8.0  -0.4785916979  -1.6670353340  -0.9641990155
 H           1.0  -0.3309411152  -2.1235270979  -1.7734582669
 H           1.0   0.2928858603  -1.8221462146  -0.4235410221
 O           8.0   3.4711261776   0.2604203091   0.5816387976
 H           1.0   4.2555637267   0.3146748063   0.0661198287
 H           1.0   2.9608745722   1.0363673893   0.3709412684
 $END
