! https://gamess.gitbooks.io/gamess-input-description/content
 $CONTRL EXETYP=RUN $END
 $SYSTEM PARALL=.T. $END
 $SYSTEM MWORDS=160 $END
 $SYSTEM MEMDDI=15200 $END
 $CONTRL SCFTYP=RHF MULT=1 ICHARG=0 ISPHER=1 $END
 $CONTRL RUNTYP=GRADIENT $END
 $CONTRL MPLEVL=2 $END
 $CONTRL MAXIT=100 $END
 $CONTRL QMTTOL=1.0E-6 $END
 $SCF DIRSCF=.T. $END
 $BASIS GBASIS=CCT $END
 $STATPT NSTEP=1000 OPTTOL=0.0001 $END
 $MP2 CODE=DDI $END
 $DATA
 misc : Hexanitrostilbene : CCT
 C1
 C           6.0  -2.6828743619   0.6177293475  -1.1136062970
 C           6.0  -1.8630470261   0.4673328895   0.0041824732
 C           6.0  -4.0559008469   0.5844421621  -1.0575749725
 N           7.0  -2.1067856376   0.8219300532  -2.4486334392
 C           6.0  -2.5388783665   0.3085706779   1.2057626181
 C           6.0  -0.3751231927   0.5233571231  -0.0819804699
 C           6.0  -3.9097576701   0.3212587750   1.3190335666
 N           7.0  -1.8173351335   0.1318869695   2.4720159827
 C           6.0  -4.6512386937   0.4452508235   0.1719832049
 N           7.0  -6.1117823765   0.4343548125   0.2619876588
 C           6.0   0.3848404978  -0.5370324904   0.0277069905
 C           6.0   1.8692922175  -0.4899886009  -0.1080470864
 C           6.0   3.9007272413  -0.9705132094  -1.3697983451
 C           6.0   4.6537790655  -0.4849254585  -0.3293010131
 C           6.0   2.5334907643  -0.9862228195  -1.2291247394
 C           6.0   4.0715727270  -0.0056057827   0.8162262375
 N           7.0   6.1126977757  -0.4835412885  -0.4425176730
 C           6.0   2.6979533177   0.0053093516   0.8888025757
 N           7.0   2.1505100030   0.5697894813   2.1285635535
 N           7.0   1.7864946221  -1.5652390923  -2.3527335111
 O           8.0   2.4834478929   0.0460085644   3.1327505649
 O           8.0  -1.0833191083   1.4134277880  -2.5187191771
 O           8.0  -1.1240545589  -0.8216553684   2.5745714868
 O           8.0  -2.0248271517   0.9386556918   3.3086170074
 O           8.0  -6.7142715305   0.5727473513  -0.7458452864
 O           8.0  -6.5826326839   0.2874944197   1.3371792315
 O           8.0  -2.7221930266   0.3997266039  -3.3638417859
 O           8.0   0.7738448977  -2.1271155137  -2.1056058517
 O           8.0   2.2650771543  -1.4485737996  -3.4260503685
 O           8.0   6.7216107437  -0.0341611704   0.4666117686
 O           8.0   6.5762046751  -0.9314358553  -1.4337085322
 O           8.0   1.4600557295   1.5260957749   2.0324238730
 H           1.0  -4.6406878818   0.6727685242  -1.9464297443
 H           1.0   0.0380259967   1.4914109566  -0.2721647565
 H           1.0  -4.3829565978   0.2299855367   2.2733639762
 H           1.0   4.3617705685  -1.3344204170  -2.2613541905
 H           1.0   4.6675227138   0.3552300741   1.6271331907
 H           1.0  -0.0303527587  -1.5088328857   0.1929212789
 $END
