! https://gamess.gitbooks.io/gamess-input-description/content
 $CONTRL EXETYP=RUN $END
 $SYSTEM PARALL=.T. $END
 $SYSTEM MWORDS=5 $END
 $SYSTEM MEMDDI=0 $END
 $CONTRL SCFTYP=RHF MULT=1 ICHARG=0 ISPHER=1 $END
 $CONTRL DFTTYP=M06-2X $END
 $DFT NRAD=96 NLEB=1202 $END
 $DFT NRAD0=96 NLEB0=1202 $END
 $CONTRL RUNTYP=ENERGY $END
 $CONTRL MPLEVL=0 $END
 $CONTRL MAXIT=100 $END
 $CONTRL QMTTOL=1.0E-6 $END
 $SCF DIRSCF=.T. $END
 $BASIS GBASIS=CCT $END
 $STATPT NSTEP=1000 OPTTOL=0.0001 $END
 $DATA
 water clusters : 7CH2 : CCT : OPTTOL=0.000005
 C1
 O           8.0  -3.0951758970   1.4244379757   0.5546440044
 H           1.0  -3.1132340930   1.7058531514   1.4514871489
 H           1.0  -3.2171627203   0.4833128188   0.5677551650
 O           8.0   1.8527753162  -2.0605988894   0.5412044663
 H           1.0   1.8458518291  -2.3994661322   1.4181963505
 H           1.0   2.4340277114  -1.3056538575   0.5483267285
 O           8.0  -3.0322235143  -1.4657462889   0.4468861586
 H           1.0  -2.2193470014  -1.6406818026  -0.0098969892
 H           1.0  -3.6821411623  -2.0316005083   0.0711846541
 O           8.0   1.8818017736   2.4407567650  -0.2574576978
 H           1.0   1.0230359799   2.1475794541  -0.5498033506
 H           1.0   1.7626702940   3.2912262126   0.1238270481
 O           8.0  -0.6219683444   1.3936014389  -1.0554643774
 H           1.0  -1.4169644660   1.5651233331  -0.5689408435
 H           1.0  -0.5731238259   0.4536549811  -1.1397887993
 O           8.0  -0.4787282639  -1.6665647844  -0.9652905728
 H           1.0  -0.3333249277  -2.1227446106  -1.7751178465
 H           1.0   0.2940158154  -1.8222875454  -0.4266008700
 O           8.0   3.4713890637   0.2595624564   0.5832230041
 H           1.0   4.2571294158   0.3150784811   0.0698152035
 H           1.0   2.9607770170   1.0351473513   0.3718614149
 $END
