! https://gamess.gitbooks.io/gamess-input-description/content
 $CONTRL EXETYP=RUN $END
 $SYSTEM PARALL=.T. $END
 $SYSTEM MWORDS=13 $END
 $SYSTEM MEMDDI=0 $END
 $CONTRL SCFTYP=RHF MULT=1 ICHARG=0 ISPHER=1 $END
 $CONTRL DFTTYP=M06-2X $END
 $DFT NRAD=96 NLEB=1202 $END
 $DFT NRAD0=96 NLEB0=1202 $END
 $CONTRL RUNTYP=ENERGY $END
 $CONTRL MPLEVL=0 $END
 $CONTRL MAXIT=100 $END
 $CONTRL QMTTOL=1.0E-6 $END
 $SCF DIRSCF=.T. $END
 $BASIS GBASIS=CCT $END
 $STATPT NSTEP=1000 OPTTOL=0.0001 $END
 $DATA
 misc : Hexanitrostilbene : CCT : OPTTOL=0.000005
 C1
 C           6.0  -2.6837396926   0.6157469830  -1.1140866718
 C           6.0  -1.8633937665   0.4645218574   0.0032311672
 C           6.0  -4.0567644386   0.5855312578  -1.0569883379
 N           7.0  -2.1081562513   0.8176539200  -2.4496413814
 C           6.0  -2.5387009418   0.3066860652   1.2052212417
 C           6.0  -0.3755427550   0.5203087786  -0.0834767196
 C           6.0  -3.9094273220   0.3222695878   1.3195184713
 N           7.0  -1.8164195543   0.1284686820   2.4708674212
 C           6.0  -4.6514978959   0.4481443881   0.1730445858
 N           7.0  -6.1119563136   0.4413525011   0.2641903129
 C           6.0   0.3850166380  -0.5396330848   0.0266897781
 C           6.0   1.8695040698  -0.4913038710  -0.1085698065
 C           6.0   3.9020478365  -0.9690535116  -1.3695688298
 C           6.0   4.6541219334  -0.4826318495  -0.3287290142
 C           6.0   2.5347733878  -0.9865248403  -1.2294688037
 C           6.0   4.0708527918  -0.0045018061   0.8167422645
 N           7.0   6.1130864899  -0.4791331619  -0.4414420832
 C           6.0   2.6971987579   0.0045719241   0.8888069071
 N           7.0   2.1485036378   0.5678326833   2.1285604002
 N           7.0   1.7887869739  -1.5664288272  -2.3532964677
 O           8.0   2.4805406342   0.0431928018   3.1326558385
 O           8.0  -1.0836221547   1.4070970069  -2.5212137198
 O           8.0  -1.1254583538  -0.8268542969   2.5729318567
 O           8.0  -2.0210195426   0.9359162348   3.3074490332
 O           8.0  -6.7148572597   0.5818562928  -0.7431166770
 O           8.0  -6.5824154984   0.2956761381   1.3397490650
 O           8.0  -2.7251019612   0.3956334431  -3.3639295565
 O           8.0   0.7763385739  -2.1288973134  -2.1066867765
 O           8.0   2.2680714510  -1.4499194231  -3.4263082940
 O           8.0   6.7210549404  -0.0284110530   0.4677356327
 O           8.0   6.5775473388  -0.9267303704  -1.4323161241
 O           8.0   1.4580628070   1.5241605392   2.0325723323
 H           1.0  -4.6419736875   0.6749602250  -1.9454582829
 H           1.0   0.0373092476   1.4884627094  -0.2737527054
 H           1.0  -4.3822903873   0.2321664167   2.2741159996
 H           1.0   4.3639297048  -1.3320490897  -2.2610539093
 H           1.0   4.6660625639   0.3570016718   1.6279247299
 H           1.0  -0.0295720014  -1.5116396089   0.1918971233
 $END
