! https://gamess.gitbooks.io/gamess-input-description/content
 $CONTRL EXETYP=RUN $END
 $SYSTEM MWORDS=35 $END
 $SYSTEM MEMDDI=1055 $END
 $CONTRL SCFTYP=RHF MULT=1 ICHARG=0 ISPHER=1 $END
 $CONTRL RUNTYP=ENERGY $END
 $CONTRL MPLEVL=2 $END
 $CONTRL MAXIT=100 $END
 $CONTRL QMTTOL=1.0E-6 $END
 $SCF DIRSCF=.T. $END
 $BASIS GBASIS=CCT $END
 $STATPT NSTEP=1000 OPTTOL=0.0001 $END
 $MP2 CODE=DDI $END
 $SYSTEM PARALL=.T. $END
 $DATA
 andrey : valium : CCT
C1
 C           6.0  -3.7164428845   3.7815866490   0.4875424926
 C           6.0  -2.5111616942   4.2890314463   0.0654567296
 C           6.0  -1.3569282654   3.5114473682   0.0670212577
 C           6.0  -1.4409222344   2.1870953240   0.4892527909
 C           6.0  -2.6632909771   1.6853920774   0.9235197846
 C           6.0  -3.7846154406   2.4749169937   0.9281009554
 H           1.0  -4.5931778680   4.3973138466   0.4866781483
 H           1.0  -2.4624506139   5.3083312566  -0.2588763043
 N           7.0  -0.1492746546   4.0771313937  -0.3860952504
 C           6.0  -0.2394769095   1.2997145609   0.5205324148
 H           1.0  -2.7306905918   0.6688031698   1.2522706647
 CL         17.0  -5.2959010969   1.8288467464   1.4821043480
 C           6.0  -0.3652826020  -0.0998280017   0.0082435028
 C           6.0  -1.1948461704  -0.4076132437  -1.0586072851
 C           6.0  -1.2590080212  -1.6985810963  -1.5498989470
 C           6.0  -0.5048148439  -2.6975430275  -0.9689528034
 C           6.0   0.3225760113  -2.3996953715   0.0997120851
 C           6.0   0.3972270325  -1.1097133946   0.5805648061
 H           1.0   1.9971019974   3.0941084285   1.9458080531
 H           1.0  -1.7856712757   0.3588834403  -1.5204713478
 H           1.0  -1.8972819121  -1.9196090583  -2.3835944872
 H           1.0  -0.5594818769  -3.7013999273  -1.3445182479
 H           1.0   0.9105614746  -3.1728219560   0.5559487401
 H           1.0   1.0471038252  -0.8723878013   1.3979205050
 C           6.0   1.0137959426   4.0102392577   0.3369543578
 O           8.0   1.9561349150   4.6857306715   0.0693770811
 C           6.0   1.0332777131   3.0091473863   1.4755320485
 N           7.0   0.8705741786   1.6663310244   0.9700617615
 C           6.0  -0.1745193753   5.0117103589  -1.5026554113
 H           1.0   0.2668387188   3.2697521013   2.2006911218
 H           1.0  -0.3237923179   6.0345393063  -1.1772837743
 H           1.0   0.7697506780   4.9610557401  -2.0170249455
 H           1.0  -0.9669108607   4.7310843298  -2.1793148450
 $END
