! https://gamess.gitbooks.io/gamess-input-description/content
 $CONTRL EXETYP=RUN $END
 $SYSTEM PARALL=.T. $END
 $SYSTEM MWORDS=310 $END
 $SYSTEM MEMDDI=32140 $END
 $CONTRL SCFTYP=RHF MULT=1 ICHARG=0 ISPHER=1 $END
 $CONTRL RUNTYP=ENERGY $END
 $CONTRL MPLEVL=2 $END
 $CONTRL MAXIT=100 $END
 $CONTRL QMTTOL=1.0E-6 $END
 $SCF DIRSCF=.T. $END
 $BASIS GBASIS=CCT $END
 $STATPT NSTEP=1000 OPTTOL=0.0001 $END
 $MP2 CODE=DDI $END
 $DATA
 misc : C60 : CCT : OPTTOL=0.000005
C1
 C           6.0   2.6053204806   1.3307986528  -1.8093048314
 C           6.0   2.1373168157   2.4705465261  -2.5667335947
 C           6.0   1.8522205336   1.2741325284  -0.5758745205
 C           6.0   3.9346864526   1.0042114919  -1.8152028081
 C           6.0   1.0949602920   3.1182716391  -1.8014294693
 C           6.0   3.0237111299   3.2227122388  -3.2895329718
 C           6.0   0.9187725511   2.3788489603  -0.5710089272
 C           6.0   0.9947817343   4.4835103128  -1.7998719756
 C           6.0   0.6518396637   3.0442396826   0.5951397154
 C           6.0   2.4687911535   0.8939022867   0.5856647258
 C           6.0   0.7127534106   5.1865060420  -0.5678080171
 C           6.0   1.9312887430   5.2781944753  -2.5635360098
 C           6.0   0.5460086121   4.4866383310   0.5967861181
 C           6.0   1.4749324243   6.4156580807  -0.5700131939
 C           6.0   1.1319890757   4.9763731401   1.8250049876
 C           6.0   1.3032503588   2.6425061643   1.8223391454
 C           6.0   2.1867490294   1.5968949925   1.8177347141
 C           6.0   1.5999992952   3.8366318003   2.5824330491
 C           6.0   3.4169509772   1.6863140551   2.5729552676
 C           6.0   3.8732971068   0.5488690951   0.5794335157
 C           6.0   4.5861063911   0.6025006879  -0.5880068321
 C           6.0   4.4593003140   1.0385778165   1.8076501067
 C           6.0   5.9252042650   1.1488734763  -0.5932231305
 C           6.0   4.8711907461   1.7989000008  -2.5788652586
 C           6.0   4.4282179367   2.8776567817  -3.2957659599
 C           6.0   6.1013918295   1.8882981839  -1.8236477293
 C           6.0   5.1904096868   4.1068010982  -3.2979777965
 C           6.0   2.9178660068   4.6651158723  -3.2878893374
 C           6.0   4.2569587610   5.2115110445  -3.2931088937
 C           6.0   2.2280308138   6.4723278775  -1.8034462442
 C           6.0   5.7267521309   1.5557325568   1.8027162108
 C           6.0   6.4798505307   1.6124023619   0.5692832517
 C           6.0   6.0234948232   2.7498653941   2.5628064382
 C           6.0   7.2420308826   2.8415535974   0.5670782013
 C           6.0   6.8227941831   3.0516870054  -1.8257347539
 C           6.0   6.3547843725   4.1914282484  -2.5831632377
 C           6.0   7.4087746746   3.5414217128  -0.5975159451
 C           6.0   6.6515324697   5.3855536855  -1.8230687396
 C           6.0   4.5378323643   6.3417463702  -2.5736859263
 C           6.0   3.4954831855   6.9894809387  -1.8083793381
 C           6.0   5.7680339888   6.4311648832  -1.8184646472
 C           6.0   4.0814863174   7.4791912956  -0.5801635671
 C           6.0   2.0295787907   6.8791870361   0.5924932386
 C           6.0   1.8533914375   6.1397619435   1.8229177634
 C           6.0   3.3686769809   7.4255588714   0.5872766953
 C           6.0   3.0835927150   6.2291597013   2.5781349637
 C           6.0   2.7643732409   3.9212590136   3.2972489158
 C           6.0   3.6978244596   2.8165493449   3.2923781230
 C           6.0   3.5265654205   5.1504031909   3.2950361099
 C           6.0   5.0369173254   3.3629440406   3.2871596039
 C           6.0   4.0200970999   7.0238476594   1.8144723116
 C           6.0   5.3494634003   6.6972619076   1.8085753019
 C           6.0   4.9310721084   4.8053475536   3.2888019477
 C           6.0   5.8174671671   5.5575141073   2.5660043462
 C           6.0   6.9600016018   3.5445495038   1.7991419372
 C           6.0   6.8598218333   4.9097879465   1.8006985726
 C           6.0   7.3029442698   4.9838204686  -0.5958698254
 C           6.0   7.0360108766   5.6492111967   0.5702787331
 C           6.0   5.4859923602   7.1341580582  -0.5863948938
 C           6.0   6.1025623978   6.7539270704   0.5751443641
 $END
