! https://gamess.gitbooks.io/gamess-input-description/content
 $CONTRL EXETYP=RUN $END
 $SYSTEM PARALL=.T. $END
 $SYSTEM MWORDS=9 $END
 $SYSTEM MEMDDI=0 $END
 $CONTRL SCFTYP=RHF MULT=1 ICHARG=0 ISPHER=1 $END
 $CONTRL RUNTYP=ENERGY $END
 $CONTRL MPLEVL=0 $END
 $CONTRL MAXIT=100 $END
 $CONTRL QMTTOL=1.0E-6 $END
 $SCF DIRSCF=.T. DIIS=.T. SOSCF=.F. FDIFF=.F. $END
 $BASIS GBASIS=CCT $END
 $STATPT NSTEP=1000 OPTTOL=0.000005 $END
 $DATA
 andrey : cytosine : CCT : OPTTOL=0.000005
C1
 N           7.0  -2.2901553528  -2.2792613065   0.5547516765
 C           6.0  -2.6122519268  -1.0011489662  -0.0350964863
 C           6.0  -1.4746963303   0.0634803055   0.0589027299
 C           6.0  -0.1723264628  -0.5074229729  -0.5271000537
 C           6.0   0.0689961570  -1.9624714423  -0.1175452289
 C           6.0  -1.2209843611  -2.7880933377  -0.2785144329
 C           6.0  -2.2558717171  -2.5078068408   1.9794866719
 C           6.0  -2.8115215772  -1.4242960182  -1.5050976916
 C           6.0  -1.8541791177  -2.6324349610  -1.6734442013
 C           6.0  -1.3093294268   0.5835427333   1.4782073624
 O           8.0  -2.0580800787   1.6209792753   1.8557298363
 C           6.0  -2.8019902058   2.4330898786   0.9840365398
 O           8.0  -0.5978709176   0.0943796442   2.2803278395
 O           8.0   0.8652488525   0.3686676283  -0.2019592941
 C           6.0   2.0276859777   0.2762643940  -0.9612270117
 C           6.0   3.0202659405   1.3229903014  -0.5169312345
 C           6.0   3.9554353798   1.8079936190  -1.4161029295
 C           6.0   4.9047087768   2.7307486880  -1.0196215134
 C           6.0   4.9242720433   3.1850549200   0.2847094382
 C           6.0   3.9902737739   2.7086966201   1.1853101201
 C           6.0   3.0439749092   1.7817730459   0.7903804991
 H           1.0  -0.2980509463  -0.4839726581  -1.6063034994
 H           1.0  -3.5198959106  -0.6025908350   0.3989401464
 H           1.0  -1.7568358076   0.8937859821  -0.5706014946
 H           1.0   0.8514379433  -2.3940599283  -0.7323748581
 H           1.0   0.4042197784  -1.9931934940   0.9100942673
 H           1.0  -1.0185681201  -3.8238279836  -0.0387287347
 H           1.0  -2.3755429260  -3.5705265584   2.1596997735
 H           1.0  -1.3560055534  -2.1728383523   2.4773146085
 H           1.0  -3.0961480716  -2.0041611010   2.4417673875
 H           1.0  -2.6112577402  -0.6241606999  -2.2063039598
 H           1.0  -3.8369762942  -1.7333322444  -1.6480295953
 H           1.0  -1.1207488348  -2.4831758196  -2.4555185433
 H           1.0  -2.4137709737  -3.5234455804  -1.9196773319
 H           1.0  -3.2755422740   3.1739118595   1.6080146316
 H           1.0  -2.1637045936   2.9351494114   0.2691417724
 H           1.0  -3.5687995902   1.8771530014   0.4616590044
 H           1.0   1.8005629507   0.4139593273  -2.0166042942
 H           1.0   2.4766343204  -0.7074130069  -0.8535738249
 H           1.0   3.9427695256   1.4674943898  -2.4355982601
 H           1.0   5.6214574046   3.0978138236  -1.7295512201
 H           1.0   5.6569832134   3.9052306377   0.5952993913
 H           1.0   3.9966430136   3.0586702587   2.2001517951
 H           1.0   2.3195351504   1.4191043621   1.4915802031
 $END
