! https://gamess.gitbooks.io/gamess-input-description/content
 $CONTRL EXETYP=RUN $END
 $SYSTEM PARALL=.T. $END
 $SYSTEM MWORDS=20 $END
 $SYSTEM MEMDDI=200 $END
 $CONTRL SCFTYP=RHF MULT=1 ICHARG=0 ISPHER=1 $END
 $CONTRL RUNTYP=ENERGY $END
 $CONTRL MPLEVL=2 $END
 $CONTRL MAXIT=100 $END
 $CONTRL QMTTOL=1.0E-6 $END
 $SCF DIRSCF=.T. $END
 $BASIS GBASIS=CCT $END
 $STATPT NSTEP=1000 OPTTOL=0.0001 $END
 $MP2 CODE=OMPRIMP2 $END
!$MP2 NACORE=0 $END
 $AUXBAS CABNAM=ACCT $END
 $DATA
 andrey : valium : CCT : OPTTOL=0.000005
C1
 C           6.0  -3.7164504046   3.7822835672   0.4849445576
 C           6.0  -2.5106707146   4.2892217620   0.0636623149
 C           6.0  -1.3566046620   3.5114394716   0.0664024271
 C           6.0  -1.4413589874   2.1872010701   0.4890281957
 C           6.0  -2.6641651858   1.6860993108   0.9226534974
 C           6.0  -3.7853041088   2.4758703430   0.9259694715
 H           1.0  -4.5929462920   4.3983216539   0.4830109910
 H           1.0  -2.4614766300   5.3083929961  -0.2609270065
 N           7.0  -0.1484162142   4.0767948575  -0.3858431957
 C           6.0  -0.2402748255   1.2993022195   0.5210662038
 H           1.0  -2.7320670784   0.6696424912   1.2516779903
 CL         17.0  -5.2971985330   1.8304042671   1.4789794747
 C           6.0  -0.3658731553  -0.1002404326   0.0086609093
 C           6.0  -1.1996182382  -0.4094807931  -1.0544834998
 C           6.0  -1.2634980929  -1.7004948286  -1.5457537397
 C           6.0  -0.5044518454  -2.6979505852  -0.9687166390
 C           6.0   0.3273262764  -2.3987209587   0.0961634653
 C           6.0   0.4013203933  -1.1087997399   0.5771081043
 H           1.0   1.9957502603   3.0931684398   1.9478425790
 H           1.0  -1.7940875748   0.3558469723  -1.5134529058
 H           1.0  -1.9054140193  -1.9225296419  -2.3763991589
 H           1.0  -0.5586103323  -3.7017986337  -1.3443938340
 H           1.0   0.9190882559  -3.1706795968   0.5493633345
 H           1.0   1.0543386632  -0.8703095436   1.3915519130
 C           6.0   1.0141528083   4.0094710801   0.3382116931
 O           8.0   1.9570106270   4.6845665921   0.0715213621
 C           6.0   1.0322421824   3.0084397665   1.4768411519
 N           7.0   0.8695991897   1.6656798951   0.9712695130
 C           6.0  -0.1729549239   5.0124749760  -1.5016277953
 H           1.0   0.2653822950   3.2694692864   2.2013522618
 H           1.0  -0.3264437731   6.0345083400  -1.1755579730
 H           1.0   0.7731461269   4.9650804042  -2.0129560832
 H           1.0  -0.9624714868   4.7303249915  -2.1811695798
 $END
