! https://gamess.gitbooks.io/gamess-input-description/content
 $CONTRL EXETYP=RUN $END
 $SYSTEM MWORDS=1500 $END
 $SYSTEM MEMDDI=500 $END
 $CONTRL SCFTYP=RHF MULT=1 ICHARG=0 ISPHER=1 $END
 $CONTRL RUNTYP=ENERGY $END
 $CONTRL MPLEVL=2 $END
 $CONTRL MAXIT=100 $END
 $CONTRL QMTTOL=1.0E-6 $END
 $SCF DIRSCF=.T. $END
 $BASIS GBASIS=CCT $END
 $STATPT NSTEP=1000 OPTTOL=0.0001 $END
 $MP2 CODE=RIMP2 $END
!$MP2 NACORE=0 $END
 $AUXBAS CABNAM=ACCT $END
 $SYSTEM PARALL=.T. $END
 $DATA
 misc : cholesterol : CCT
C1
 O           8.0   7.5515357116   1.6182620669  -0.2594300864
 C           6.0  -0.7506589365  -1.1315971253  -0.2872958116
 C           6.0  -0.0439579834  -0.4670947117   0.9111976463
 C           6.0   1.4775872304  -0.5911921255   0.9309433722
 C           6.0   2.0637111607  -0.0145328837  -0.3721005413
 C           6.0  -2.2330262468  -0.8086332434   0.0694270418
 C           6.0  -0.1888272610  -0.4603747145  -1.5468142412
 C           6.0   3.6155524567  -0.1454426812  -0.4456869866
 C           6.0  -0.8359822791  -0.9361338335   2.1291430262
 C           6.0   1.3404670309  -0.5597850658  -1.6158022972
 C           6.0  -2.2852663615  -1.0359971172   1.6061047791
 C           6.0   2.0676427124   0.1444929060   2.1323835287
 C           6.0  -3.3758972660  -1.5324973637  -0.6712022919
 C           6.0  -0.5292690067  -2.6538639204  -0.3418960980
 C           6.0   4.2395575530   0.2566718260   0.8919851063
 C           6.0   4.1438378600   0.8256633416  -1.5323960655
 C           6.0   3.5397596011   0.3910278137   2.0011924285
 C           6.0   4.0549004415  -1.5859971502  -0.7845287619
 C           6.0   5.7312592834   0.5086653621   0.8950663862
 C           6.0   5.6579294681   1.0244555219  -1.5408121826
 C           6.0  -4.7663447581  -1.1671081991  -0.1093723056
 C           6.0   6.1543296956   1.4929725383  -0.1889137523
 C           6.0  -3.3502210154  -1.3367491108  -2.1914930868
 C           6.0  -5.2077353012   0.2920038457  -0.2464678767
 C           6.0  -6.6215932898   0.5044895502   0.2982835307
 C           6.0  -7.1838415787   1.9331695388   0.2295950739
 C           6.0  -7.3352760145   2.4445974633  -1.2039261805
 C           6.0  -6.3932596320   2.9256606405   1.0837293536
 H           1.0  -0.2516134830   0.5975583698   0.8058976256
 H           1.0   1.7520027216  -1.6375114488   1.0177908889
 H           1.0   1.8584070959   1.0541861421  -0.3349129513
 H           1.0  -2.3526697646   0.2553161601  -0.1122693604
 H           1.0  -0.4811818881   0.5864946760  -1.5461146747
 H           1.0  -0.5963509114  -0.8928190686  -2.4505540438
 H           1.0  -0.7506420307  -0.2536670066   2.9647271853
 H           1.0  -0.4811791310  -1.9002722653   2.4761791649
 H           1.0   1.6107811399  -1.5941522417  -1.7790854736
 H           1.0   1.6731224875  -0.0221580288  -2.4952634101
 H           1.0  -2.7055396395  -2.0083497625   1.8328350553
 H           1.0  -2.9279957190  -0.3079434691   2.0837574440
 H           1.0   1.8814966534  -0.4169800573   3.0421984345
 H           1.0   1.5601027242   1.0986961699   2.2661064623
 H           1.0  -3.2638725173  -2.5970281292  -0.4856483712
 H           1.0  -0.9837953144  -3.0728438644  -1.2313505557
 H           1.0   0.5178472592  -2.9178574667  -0.3660329385
 H           1.0  -0.9654706940  -3.1591325477   0.5098547554
 H           1.0   3.6744866632   1.7936829553  -1.3820998279
 H           1.0   3.8317681260   0.4811666544  -2.5098127693
 H           1.0   4.0482161561   0.7014277421   2.8985260642
 H           1.0   3.7960350481  -1.8497211654  -1.8016617316
 H           1.0   5.1240935764  -1.7075905207  -0.6885711105
 H           1.0   3.5928069113  -2.3047761906  -0.1202241044
 H           1.0   6.0333137660   0.8756704672   1.8698793876
 H           1.0   6.2756821136  -0.4152191885   0.7264435109
 H           1.0   6.1739559137   0.1061781490  -1.7988377220
 H           1.0   5.9272240922   1.7539550521  -2.2957096960
 H           1.0  -5.4951009354  -1.7937352336  -0.6166596076
 H           1.0  -4.8177027021  -1.4471052042   0.9366167514
 H           1.0   5.7118262527   2.4643188959   0.0283122764
 H           1.0  -3.2685024871  -0.2915708402  -2.4663385302
 H           1.0  -4.2606513406  -1.7234616642  -2.6364900129
 H           1.0  -2.5241844947  -1.8601059364  -2.6508863414
 H           1.0  -4.5147418658   0.9357084348   0.2824779992
 H           1.0  -5.1708897834   0.5883295751  -1.2881880902
 H           1.0   7.8875236707   1.9517103905   0.5526532000
 H           1.0  -6.6462649779   0.1800853829   1.3356997616
 H           1.0  -7.3016711254  -0.1534925869  -0.2369140089
 H           1.0  -8.1837690810   1.8774985912   0.6533366586
 H           1.0  -7.8985816824   1.7462188770  -1.8136315276
 H           1.0  -7.8605096118   3.3932993324  -1.2180702950
 H           1.0  -6.3733987051   2.5999832970  -1.6794056628
 H           1.0  -6.2870654831   2.5703676207   2.1032217147
 H           1.0  -6.8969629917   3.8854005936   1.1196144039
 H           1.0  -5.3992940659   3.0967071593   0.6858917458
 $END
