! https://gamess.gitbooks.io/gamess-input-description/content
 $CONTRL EXETYP=RUN $END
 $SYSTEM PARALL=.T. $END
 $SYSTEM MWORDS=115 $END
 $SYSTEM MEMDDI=1440 $END
 $CONTRL SCFTYP=RHF MULT=1 ICHARG=+2 NZVAR=255 ISPHER=1 $END
 $CONTRL RUNTYP=ENERGY $END
 $CONTRL MPLEVL=2 $END
 $CONTRL MAXIT=100 $END
 $CONTRL QMTTOL=1.0E-6 $END
 $SCF DIRSCF=.T. DIIS=.T. SOSCF=.F. FDIFF=.F. $END
 $BASIS GBASIS=CCT $END
 $STATPT NSTEP=1000 OPTTOL=0.0001 $END
 $zmat   auto=.true. dlc=.true. $end
 $MP2 CODE=RIMP2 $END
!$MP2 NACORE=0 $END
 $AUXBAS CABNAM=ACCT $END
 $DATA
 andrey : d-tubocurarine : CCT : OPTTOL=0.000005
C1
 C           6.0   5.7548558237   3.3365468280   0.5374557012
 C           6.0   6.2790943162   2.0388451888  -0.0446453109
 C           6.0   3.5075455187   2.3696389686   1.0494681507
 C           6.0   3.9375546925   1.1493940317   0.2589799769
 C           6.0   3.0026281399   0.1233946997   0.0720645986
 C           6.0   3.3063828471  -0.9828704918  -0.6612626656
 C           6.0   4.5949113903  -1.1344803986  -1.2060256574
 C           6.0   5.5134360322  -0.1334645320  -1.0086016034
 C           6.0   5.1925814666   1.0159616920  -0.2818814952
 N           7.0   4.7266144985   3.0808417006   1.5998809607
 H           1.0   4.4114822665   3.9826114234   1.9068056848
 C           6.0   5.2917060691   2.4043944094   2.8015208647
 O           8.0   4.8208819499  -2.2711383339  -1.8547880924
 C           6.0   6.0608710169  -2.4997098733  -2.4844197698
 C           6.0   2.6284416795   3.3967267596   0.2958417209
 C           6.0   1.2771668803   2.8414085492  -0.0897181470
 C           6.0   1.0333925383   2.4146179973  -1.3855644650
 C           6.0  -0.1562777631   1.8110913718  -1.7233028581
 C           6.0  -1.1265923810   1.6207387720  -0.7580507233
 C           6.0  -0.9353913983   2.0937627818   0.5233886001
 C           6.0   0.2654572272   2.7012698546   0.8434314122
 O           8.0   2.4115113236  -1.9657362860  -0.9526943885
 C           6.0  -0.7007330128  -2.2881361604   0.9416728765
 C           6.0  -0.3043101963  -3.2683102510   1.8364242281
 C           6.0   0.9578070792  -3.8268077154   1.7883085862
 C           6.0   1.8723928983  -3.3925673606   0.8492326935
 C           6.0   1.4987280329  -2.3778983189  -0.0197788186
 C           6.0   0.2278252840  -1.8524154322   0.0073259214
 O           8.0   3.0893326210  -3.9422589748   0.8081590017
 H           1.0   3.5285987065  -3.7355177448  -0.0015470988
 O           8.0  -2.2001619009   0.8826034118  -1.1493050465
 C           6.0  -2.0596982002  -1.6232414179   1.0653419722
 C           6.0  -5.9612062853   0.7301233807   0.4967931809
 C           6.0  -5.4500547219   1.9405594869   0.1115906250
 C           6.0  -4.1566418840   2.0115142901  -0.4297988410
 C           6.0  -3.4066076402   0.8713450103  -0.5171335420
 O           8.0  -3.6572931953   3.1683059269  -0.8727038172
 H           1.0  -4.2979474576   3.8555084641  -0.7804933450
 O           8.0  -6.0798032566   3.1154138396   0.1617443873
 C           6.0  -7.4115008418   3.1968272621   0.6188392983
 C           6.0  -4.8973634057  -2.9344286814   0.6941436841
 C           6.0  -2.9987246144  -1.5814726435  -0.1698232557
 C           6.0  -3.9125577665  -0.3686698130  -0.0962938281
 C           6.0  -5.1959852259  -0.4325393259   0.3843332430
 C           6.0  -5.8546406844  -1.7560314799   0.6900978062
 N           7.0  -3.8406616980  -2.8388031841  -0.3676694850
 C           6.0  -3.0097780652  -4.0755408151  -0.3109802679
 C           6.0  -4.4645731521  -2.8019767590  -1.7268138372
 H           1.0   5.2764693577   3.9390468700  -0.2165655443
 H           1.0   6.5421495101   3.9220519913   0.9868841877
 H           1.0   6.7820093956   2.2805051960  -0.9716466480
 H           1.0   7.0360633077   1.6163540905   0.6061435711
 H           1.0   2.9594421106   2.0481689731   1.9231059520
 H           1.0   2.0256712408   0.2089329751   0.4984263679
 H           1.0   6.5032719967  -0.2316037990  -1.4049557328
 H           1.0   4.5494905992   2.4185935207   3.5835128064
 H           1.0   5.5424056430   1.3874967790   2.5558253783
 H           1.0   6.1706657370   2.9405658982   3.1229180033
 H           1.0   6.2589594536  -1.7432027983  -3.2325488843
 H           1.0   6.8658187703  -2.5254484695  -1.7610903982
 H           1.0   5.9793457047  -3.4610496892  -2.9619708374
 H           1.0   2.4888198648   4.2606417513   0.9407247227
 H           1.0   3.1374157265   3.7377137106  -0.5941610143
 H           1.0   1.7850776266   2.5356526587  -2.1419502334
 H           1.0  -0.3388414815   1.4720719400  -2.7234137477
 H           1.0  -1.7022488877   1.9994325694   1.2655425577
 H           1.0   0.4028709455   3.0607335763   1.8470891326
 H           1.0  -0.9848826117  -3.6120012236   2.5935328990
 H           1.0   1.2459634063  -4.6004376359   2.4720288008
 H           1.0  -0.0113033051  -1.0820915399  -0.6993960796
 H           1.0  -2.5839326024  -2.0301031598   1.9183120045
 H           1.0  -1.8953918768  -0.5862899760   1.3152551798
 H           1.0  -6.9605500600   0.6619288978   0.8754195909
 H           1.0  -8.0690836419   2.6087214026  -0.0076294016
 H           1.0  -7.4853908179   2.8687807898   1.6472823951
 H           1.0  -7.6878772706   4.2351325512   0.5533023425
 H           1.0  -5.4252114898  -3.8619035762   0.5330811226
 H           1.0  -4.3822242670  -3.0103874992   1.6359577125
 H           1.0  -6.3367354711  -1.7301169418   1.6588071389
 H           1.0  -6.6445560727  -1.9267587341  -0.0321897933
 H           1.0  -2.1796186168  -3.9790763664  -0.9904750425
 H           1.0  -2.6452974692  -4.2281177833   0.6869843768
 H           1.0  -3.6274379804  -4.9102409765  -0.6015695035
 H           1.0  -3.6800301867  -2.8594416367  -2.4638274577
 H           1.0  -5.1193408665  -3.6526567503  -1.8281652275
 H           1.0  -5.0169076369  -1.8905478890  -1.8587238273
 H           1.0  -2.3982286292  -1.5185057386  -1.0615376437
 $END
